LAMMPS (29 Sep 2021)

# ------------------------------- Initialization Section --------------------

include      "system.in.init"        # specify the style of force field used
  atom_style full
  units real
  bond_style harmonic
  angle_style harmonic
  dihedral_style opls
  improper_style harmonic
  pair_style lj/cut/coul/long 11.0 11.0
  pair_modify mix geometric
  special_bonds lj/coul 0.0 0.0 0.5
  kspace_style pppm 0.0001

# ------------------------------- Atom Definition Section -------------------

read_data    "system.data"
Reading data file ...
  orthogonal box = (0.0000000 0.0000000 0.0000000) to (103.50000 103.50000 103.50000)
  2 by 2 by 2 MPI processor grid
  reading atoms ...
  5000 atoms
  scanning bonds ...
  4 = max bonds/atom
  scanning angles ...
  6 = max angles/atom
  reading bonds ...
  4000 bonds
  reading angles ...
  6000 angles
Finding 1-2 1-3 1-4 neighbors ...
  special bond factors lj:    0        0        0.5     
  special bond factors coul:  0        0        0.5     
     4 = max # of 1-2 neighbors
     3 = max # of 1-3 neighbors
     3 = max # of 1-4 neighbors
     4 = max # of special neighbors
  special bonds CPU = 0.011 seconds
  read_data CPU = 0.075 seconds

# ------------------------------- Settings Section --------------------------

include      "system.in.settings"    # load the force field parameters
  pair_coeff 1 1 0.066 3.5
  pair_coeff 2 2 0.03 2.5
  bond_coeff 1 340.0 1.09
  angle_coeff 1 33.0 107.8
  set type 1 charge -0.24
Setting atom values ...
  1000 settings made for charge
  set type 2 charge 0.06
Setting atom values ...
  4000 settings made for charge
include      "system.in.charges"     # load the charge of each atom
  set type 1 charge -0.24
Setting atom values ...
  1000 settings made for charge
  set type 2 charge 0.06
Setting atom values ...
  4000 settings made for charge

# ------------------------------- Run Section -------------------------------


# -- minimization protocol --

thermo          500
minimize	1.0e-4 1.0e-6 100000 400000
WARNING: Using 'neigh_modify every 1 delay 0 check yes' setting during minimization (../min.cpp:188)
PPPM initialization ...
  using 12-bit tables for long-range coulomb (../kspace.cpp:340)
  G vector (1/distance) = 0.13982374
  grid = 15 15 15
  stencil order = 5
  estimated absolute RMS force accuracy = 0.025711481
  estimated relative force accuracy = 7.7429363e-05
  using double precision KISS FFT
  3d grid and FFT values/proc = 2197 512
Neighbor list info ...
  update every 1 steps, delay 0 steps, check yes
  max neighbors/atom: 2000, page size: 100000
  master list distance cutoff = 13
  ghost atom cutoff = 13
  binsize = 6.5, bins = 16 16 16
  1 neighbor lists, perpetual/occasional/extra = 1 0 0
  (1) pair lj/cut/coul/long, perpetual
      attributes: half, newton on
      pair build: half/bin/newton
      stencil: half/bin/3d
      bin: standard
Per MPI rank memory allocation (min/avg/max) = 9.951 | 9.952 | 9.957 Mbytes
Step Temp E_pair E_mol TotEng Press 
       0            0    13.473059    169.81587    183.28893    62.917711 
       2            0     13.46648    168.45644    181.92292    1.7188027 
Loop time of 0.00572452 on 8 procs for 2 steps with 5000 atoms

97.5% CPU use with 8 MPI tasks x no OpenMP threads

Minimization stats:
  Stopping criterion = energy tolerance
  Energy initial, next-to-last, final = 
      183.288930482805   181.923003048985   181.922915101875
  Force two-norm initial, final = 43.104107 0.12623321
  Force max component initial, final = 0.68269501 0.0017082284
  Final line search alpha, max atom move = 1.0000000 0.0017082284
  Iterations, force evaluations = 2 4

MPI task timing breakdown:
Section |  min time  |  avg time  |  max time  |%varavg| %total
---------------------------------------------------------------
Pair    | 0.0019045  | 0.0019372  | 0.0019945  |   0.1 | 33.84
Bond    | 0.00038566 | 0.00039002 | 0.0003961  |   0.0 |  6.81
Kspace  | 0.0028693  | 0.0029312  | 0.002962   |   0.1 | 51.20
Neigh   | 0          | 0          | 0          |   0.0 |  0.00
Comm    | 0.00026808 | 0.00028491 | 0.00030123 |   0.0 |  4.98
Output  | 0          | 0          | 0          |   0.0 |  0.00
Modify  | 0          | 0          | 0          |   0.0 |  0.00
Other   |            | 0.0001812  |            |       |  3.17

Nlocal:        625.000 ave         625 max         625 min
Histogram: 8 0 0 0 0 0 0 0 0 0
Nghost:        1935.00 ave        1935 max        1935 min
Histogram: 8 0 0 0 0 0 0 0 0 0
Neighs:        11250.0 ave       11625 max       10875 min
Histogram: 2 0 2 0 0 0 0 1 1 2

Total # of neighbors = 90000
Ave neighs/atom = 18.000000
Ave special neighs/atom = 4.0000000
Neighbor list builds = 0
Dangerous builds = 0

# Optional: write the coordinates after minimization
write_data  	system_after_min.data
System init for write_data ...
PPPM initialization ...
  using 12-bit tables for long-range coulomb (../kspace.cpp:340)
  G vector (1/distance) = 0.13982374
  grid = 15 15 15
  stencil order = 5
  estimated absolute RMS force accuracy = 0.025711481
  estimated relative force accuracy = 7.7429363e-05
  using double precision KISS FFT
  3d grid and FFT values/proc = 2197 512


# -- simulation protocol --


timestep        1.0
dump            1 all custom 2500 traj_npt.lammpstrj id mol type x y z ix iy iz
thermo_style    custom step time temp press vol density pe etotal epair ebond eangle edihed
fix             fxnpt all npt temp 50.0 50.0 50.0 iso 1.0 1.0 1000.0 drag 1.0


# ----------------------------- Customization -------------------------------
variable	d equal density
variable 	pe equal epair

fix extra all print 100 "${d} ${pe}" file out.txt screen no

run             1000000
PPPM initialization ...
  using 12-bit tables for long-range coulomb (../kspace.cpp:340)
  G vector (1/distance) = 0.13982374
  grid = 15 15 15
  stencil order = 5
  estimated absolute RMS force accuracy = 0.025711481
  estimated relative force accuracy = 7.7429363e-05
  using double precision KISS FFT
  3d grid and FFT values/proc = 2197 512
Per MPI rank memory allocation (min/avg/max) = 8.866 | 8.867 | 8.872 Mbytes
Step Time Temp Press Volume Density PotEng TotEng E_pair E_bond E_angle E_dihed 
       2            0            0    1.7188027    1108717.9  0.024027777    181.92292    181.92292     13.46648 1.4398946e-05    168.45642            0 
     500          498 0.0020218016    1.5612987    1114904.6  0.023894444    181.76638    181.79651    13.309555 3.3957982e-05    168.45679            0 
    1000          998   0.02010391    1.4335177    1129412.4  0.023587509    181.40456    181.70413    12.947567 4.9703876e-05    168.45694            0 
    1500         1498   0.16433322    3.6733167    1146734.1  0.023231214    200.55368    203.00242    32.095411 0.00020928611    168.45806            0 
    2000         1998    1.7280672    5.3521736    1194279.8  0.022306352    215.34351    241.09356    46.884182 0.0014151204    168.45791            0 
    2500         2498    12.848186    6.0418762    1255025.9  0.021226675    223.56656    415.01828    55.018276   0.03661491    168.51167            0 
    3000         2998    44.822661    6.4950252    1319083.2  0.020195865    229.31791    897.22349    60.098918   0.36714534    168.85185            0 
    3500         3498    50.019888    3.3845592    1325778.6  0.020093873    201.32083    946.67065    31.865823   0.43787009    169.01713            0 
    4000         3998    49.996476   -3.9676873    1332871.5  0.019986943    133.87587    878.87683   -35.607077   0.42540682    169.05754            0 
    4500         4498    49.987134    3.5244362    1329604.6  0.020036051    199.47319    944.33494    30.082121   0.43907342    168.95199            0 
    5000         4998    49.995255    5.7628589    1330389.3  0.020024233    218.36455    963.34731    48.979557   0.44085891    168.94413            0 
    5500         5498    49.982313   -1.7065062      1331402  0.020009002    150.57499    895.36491   -18.861853   0.44083885      168.996            0 
    6000         5998    50.017449    3.4722681    1330639.1  0.020020475    197.48156    942.79504    27.963781   0.43120829    169.08657            0 
    6500         6498    49.976869   -3.2908526    1331081.8  0.020013816    135.61927    880.32807   -33.796967   0.42912173    168.98711            0 
    7000         6998    50.024505   -2.8656987    1331198.8  0.020012057      137.125    882.54363   -32.210617   0.41087293    168.92474            0 
    7500         7498    50.020047     4.141881    1330746.6  0.020018857    199.82149    945.17368    30.413091   0.42030814    168.98809            0 
    8000         7998    50.015505     3.259046    1330991.6  0.020015172    191.65179     936.9363    22.155615   0.41574196    169.08043            0 
    8500         8498    49.993466   -3.1970768    1331065.8  0.020014056    132.90184    877.85795   -36.527593    0.4364059    168.99303            0 
    9000         8998    49.970172    4.2282079    1330842.2  0.020017418    199.09216    943.70116    29.749428   0.42124406    168.92149            0 
    9500         9498    50.008324   -2.7694486      1331032  0.020014564    135.60634    880.78386   -33.798555   0.42062751    168.98427            0 
   10000         9998    49.961337    6.8484065    1330726.5   0.02001916    222.24088    966.71823    52.789828   0.39467971    169.05637            0 
   10500        10498    50.013604   -2.7631083    1331165.3  0.020012561    135.79476    881.05095   -33.647357   0.41756859    169.02455            0 
   11000        10998    50.005297    5.0314724    1330701.3  0.020019538    206.24785    951.38026    36.913164   0.41788889     168.9168            0 
   11500        11498      50.0332   -2.5321871    1331083.2  0.020013795     137.3128    882.86099   -32.066727   0.43005446    168.94948            0 
   12000        11998    50.015726   -1.5264267    1331024.4  0.020014679    146.44719    891.73499   -23.026671   0.41337197    169.06049            0 
   12500        12498    50.015187    1.6803193    1330971.9  0.020015469    175.27795    920.55772    5.8419104   0.41786415    169.01818            0 
   13000        12998    50.014058    1.4219924    1330969.9  0.020015499    172.08469    917.34764    2.7701934   0.40366746    168.91082            0 
   13500        13498    49.980239    2.1171237    1330894.7   0.02001663    177.69444    922.45345    8.3586046   0.40953495    168.92631            0 
   14000        13998    50.004885    1.2972024      1330933  0.020016053    170.05312    915.17938   0.61450601   0.40680261    169.03181            0 
   14500        14498    49.952527     3.369431    1330809.4  0.020017912    188.30452    932.65059     18.86544   0.41712632    169.02196            0 
   15000        14998    50.005878    1.6283016    1330954.4  0.020015731    171.62507    916.76613    2.2713061   0.41937527    168.93439            0 
   15500        15498    50.006238    2.7374936    1330846.8  0.020017349    181.55194    926.69836    12.217145     0.407742    168.92705            0 
   16000        15998    50.031043    1.5318726    1330903.7  0.020016494    170.51418    916.03023    1.0970433   0.39821945    169.01892            0 
   16500        16498    50.028672     1.829294    1330897.1  0.020016593    173.19213    918.67284    3.7700073   0.39619131    169.02593            0 
   17000        16998    50.014415    1.9284383    1330855.4   0.02001722    173.58536    918.85363     4.222031   0.41338191    168.94995            0 
   17500        17498    50.005969    2.3390996    1330896.2  0.020016606    177.00448     922.1469    7.6424315    0.4115115    168.95054            0 
   18000        17998    49.969922      3.59987    1330815.6  0.020017819    189.16744    933.77271    19.728731   0.41485852    169.02385            0 
   18500        18498    50.025674    1.7647601    1330879.9  0.020016851    172.69227    918.12832    3.2352013   0.40110258    169.05597            0 
   19000        18998    49.994372    3.5999417    1330783.1  0.020018307    189.74289    934.71249    20.351647   0.41369386    168.97755            0 
   19500        19498    50.015357    1.7547715    1330842.7  0.020017411    173.02848    918.31079    3.6613429   0.39711425    168.97002            0 
   20000        19998    50.012901    2.2706352    1330743.1  0.020018909    178.05553    923.30124    8.6066619   0.41366064     169.0352            0 
   20500        20498    50.027798     1.657413    1330753.6  0.020018752    172.41398    917.88167    2.9296983   0.40952836    169.07475            0 
   21000        20998    50.023628    1.8242486    1330713.9  0.020019349    174.27914    919.68469     4.832214   0.42733991    169.01959            0 
   21500        21498    49.999831    2.1324573    1330629.3  0.020020622    177.19301    922.24396    7.7892421   0.41056963     168.9932            0 
   22000        21998    50.014859    1.4566286    1330591.6  0.020021189    171.50737    916.78226    2.0429058   0.41104435    169.05342            0 
   22500        22498    49.958238    4.3564011    1330371.1  0.020024508    198.13051    942.56168    28.629749   0.39663157    169.10413            0 
   23000        22998    50.020634    1.5627947    1330290.2  0.020025725    173.28691    918.64784    3.8034766   0.42294289    169.06049            0 
   23500        23498    49.990194    2.2729804    1330043.2  0.020029444    180.05354    924.96089     10.62252   0.42101384    169.01001            0 
   24000        23998    50.016237    1.1919045    1329867.1  0.020032097    170.95034    916.24575    1.4557823   0.42682255    169.06774            0 
   24500        24498    50.011069     1.652466    1329548.5  0.020036896    175.56638    920.78479    6.0014151   0.41714039    169.14783            0 
   25000        24998     50.01761     1.521572    1329108.7  0.020043527    174.98291    920.29879    5.4626921   0.41999301    169.10022            0 
   25500        25498    50.014505    1.6109481      1328757  0.020048832    176.04943    921.31904    6.5761441   0.41766532    169.05562            0 
   26000        25998    49.983714    2.1175549    1328152.8  0.020057952    181.58681     926.3976    12.086301   0.42262783    169.07788            0 
   26500        26498    50.013342    1.3646805    1327577.1   0.02006665    175.42425    920.67654    5.8134365   0.42992517    169.18089            0 
   27000        26998    49.955602    2.7333207    1326536.1  0.020082399    188.61185    933.00374    19.020989   0.43558986    169.15527            0 
   27500        27498    50.012525   0.76999292      1325538  0.020097519    171.17922    916.41933    1.6421943   0.44248497    169.09454            0 
   28000        27998     49.99703    1.1506058      1324228  0.020117402    175.54156    920.55077    6.0198391   0.42591698     169.0958            0 
   28500        28498    50.011003    1.2147515    1323008.3  0.020135948    176.86542    922.08284     7.200168   0.42983474    169.23542            0 
   29000        28998    50.015412    1.0801048    1321498.3  0.020158955    176.38835    921.67148    6.7225728   0.43079074    169.23499            0 
   29500        29498    50.009134   0.59096353    1320454.8  0.020174887    172.65835    917.84793    3.0581401   0.45365252    169.14656            0 
   30000        29998    50.005648   0.66766358    1319166.1  0.020194595    174.28175    919.41938    4.6907518   0.44567442    169.14532            0 
   30500        30498    49.956306    1.7330652    1318807.7  0.020200084    184.64625    929.04864    14.928809   0.45262685    169.26482            0 
   31000        30998    50.009345   0.82579582    1319175.7  0.020194448    177.32958    922.52231    7.6023749   0.43787835    169.28933            0 
   31500        31498    49.972848    1.2830513    1319635.4  0.020187414    181.98076    926.62964    12.319589   0.45457829    169.20659            0 
   32000        31998    50.013944    0.1733802    1320362.2  0.020176302     172.7546    918.01585    3.1128242   0.44082691    169.20095            0 
   32500        32498    49.993052   0.47286284    1320761.7  0.020170198     176.2559    921.20584    6.5030398   0.45805833     169.2948            0 
   33000        32998    50.003859   0.47284603    1321009.9  0.020166409    176.96383     922.0748    7.1859819   0.45733084    169.32052            0 
   33500        33498    50.007349   0.36847075    1321501.6  0.020158905    176.49524    921.65823    6.7584937   0.47222951    169.26452            0 
   34000        33998    49.997865   0.30625903    1321176.8  0.020163861    176.66153    921.68319     6.977322   0.45525383    169.22896            0 
   34500        34498    49.992416  0.087343004      1321249   0.02016276    175.15111    920.09156    5.3909531    0.4563991    169.30375            0 
   35000        34998    49.981984   0.48556468    1320982.1  0.020166833     179.3038    924.08882    9.5197473   0.45052732    169.33353            0 
   35500        35498    49.995701   0.43020695    1320820.7  0.020169297      179.314    924.30341    9.5277985   0.47298093    169.31322            0 
   36000        35998    49.998143   0.54953968    1321129.8  0.020164578    180.94532    925.97112    11.226536   0.47389411    169.24489            0 
   36500        36498    49.992596   -0.1030724    1320776.8  0.020169968    175.45869    920.40184    5.6796724   0.46875013    169.31027            0 
   37000        36998    49.994893  -0.12999986    1320279.2   0.02017757    175.64609    920.62346    5.8259583   0.46615874    169.35397            0 
   37500        37498    50.005021   0.17105271    1320022.3  0.020181496    178.51244    923.64073    8.7273223   0.46458226    169.32054            0 
   38000        37998    49.990662  0.025842622    1320153.5  0.020179491    177.53436    922.44869    7.7786924   0.46545865    169.29021            0 
   38500        38498    50.015619   0.43665804    1319717.7  0.020186156    181.51234    926.79856     11.72621   0.46547383    169.32066            0 
   39000        38998     49.97103  -0.23948716    1319563.2  0.020188518    175.68836    920.31015    5.8611223   0.47583413     169.3514            0 
   39500        39498    50.015351  -0.19226253    1319433.5  0.020190503    176.17809    921.46031    6.3691957   0.47279089    169.33611            0 
   40000        39998    49.970999  0.086312019      1318725   0.02020135    178.81012    923.43145     9.013796   0.47739273    169.31894            0 
   40500        40498    50.011156   0.32422766    1318439.4  0.020205727    181.03598    926.25569    11.234987   0.45621292    169.34478            0 
   41000        40998    49.998375  -0.33022853    1317738.2  0.020216478    175.11135    920.14061    5.2886154   0.46503937     169.3577            0 
   41500        41498    49.983996  -0.21152824    1316824.5  0.020230505     176.1175    920.93249    6.3096392   0.46202151    169.34584            0 
   42000        41998    50.038681  -0.35473977      1315980  0.020243488    174.67967    920.30954    4.8772201   0.47904263    169.32341            0 
   42500        42498    49.943416  -0.25442626    1315236.3  0.020254935    175.53016    919.74047    5.7256191   0.46371222    169.34083            0 
   43000        42998    50.051871    0.1991401    1313518.3  0.020281428    179.34534    925.17175    9.4974301   0.46852058    169.37939            0 
   43500        43498    49.949435   0.33867875    1311784.9  0.020308228    180.32692    924.62692    10.495129   0.45166963    169.38012            0 
   44000        43998     50.03153  0.055101374    1310166.7   0.02033331    177.49347    923.01678     7.682663   0.46526473    169.34555            0 
   44500        44498    49.983738   0.26021364    1308147.1  0.020364703    179.05845    923.86961    9.2525035   0.45463363    169.35132            0 
   45000        44998    49.977873   0.22395924    1306245.8  0.020394343    178.41089    923.13464    8.5687441   0.45932413    169.38282            0 
   45500        45498    50.038417 -0.061935999    1303918.4  0.020430746    175.45174    921.07767    5.6119752   0.46026152     169.3795            0 
   46000        45998    49.945818   0.42891589    1301183.3  0.020473692    179.37915    923.62525    9.5489518   0.45698051    169.37321            0 
   46500        46498    50.071056 -0.094839378    1298795.8  0.020511327    174.21362     920.3259     4.403953   0.44848687    169.36118            0 
   47000        46998    49.927509   0.25039509    1295023.2  0.020571081    176.86422     920.8375    7.0139106    0.4429371    169.40737            0 
   47500        47498    50.045867   0.25517892    1291680.9  0.020624309    176.43945    922.17638    6.5796683   0.44883398    169.41094            0 
   48000        47998    49.975584   0.27024108    1287550.1  0.020690477    175.83444    920.52408    5.9987781   0.44861735    169.38705            0 
   48500        48498    50.005446   0.57773265    1283321.7  0.020758651    177.99375    923.12838     8.187821   0.44869087    169.35724            0 
   49000        48998    50.020948   0.44430153    1278877.5  0.020830787    176.03705    921.40268    6.2048806    0.4351563    169.39702            0 
   49500        49498    49.948205   0.33717745    1273849.3  0.020913012    174.58641    918.86808    4.7249851   0.43826548    169.42316            0 
   50000        49998    50.060548   0.35697469    1268136.8  0.021007218    173.91329    919.86899    4.0575626   0.43321809    169.42251            0 
   50500        50498    49.950233   0.67150376    1262557.2  0.021100054    176.07632    920.38821    6.2696179   0.43374653    169.37296            0 
   51000        50998    50.049327   0.54364788    1256577.9  0.021200457    174.07276    919.86125     4.228699   0.43076467    169.41329            0 
   51500        51498    49.955621   0.76268842    1250329.3  0.021306409    175.47105    919.86322    5.6145053   0.43241195    169.42413            0 
   52000        51998    50.017142   0.99394395      1243955  0.021415587    176.52464    921.83355    6.6716442   0.42376582    169.42923            0 
   52500        52498    50.012368    1.0111416    1236487.1  0.021544929    176.07348    921.31125    6.2568975   0.42465827    169.39192            0 
   53000        52998    49.985115    1.2456232    1229707.7  0.021663705    177.25823     922.0899    7.4245481   0.41674056    169.41694            0 
   53500        53498    50.025133      1.21728    1222230.3  0.021796241    176.35803      921.786     6.465748   0.42175001    169.47053            0 
   54000        53998    49.969402    1.1819228    1214423.1  0.021936363    175.45204    920.04957    5.5777788   0.41920416    169.45506            0 
   54500        54498    50.032846   0.82021245    1206798.4   0.02207496    171.71925    917.26217    1.8741809   0.41742328    169.42765            0 
   55000        54998    49.984262     1.442889    1198461.1  0.022228528     176.1212    920.94016    6.2766008   0.41225763    169.43235            0 
   55500        55498    50.019753    1.2773978    1190811.5  0.022371321    174.13864    919.48644    4.2648202    0.4097534    169.46406            0 
   56000        55998    49.993427    1.2601639    1183203.9   0.02251516     173.5887    918.54423    3.7042861   0.40917437    169.47524            0 
   56500        56498    49.996236    1.7151915    1175404.4  0.022664563    176.68164    921.67902    6.8219419   0.41050597     169.4492            0 
   57000        56998     50.01851    1.6569979    1168315.5  0.022802082      175.634     920.9633    5.7494359   0.41070497    169.47386            0 
   57500        57498    49.985556    1.8557833    1161075.2  0.022944273    176.73091    921.56915    6.8429828   0.40414682    169.48378            0 
   58000        57998    50.009392    1.5685309    1154359.4  0.023077758    174.02457      919.218    4.1345113   0.40758302    169.48247            0 
   58500        58498    50.000759    1.8460102    1147965.2  0.023206301    175.76951    920.83429    5.9089994   0.40162087    169.45889            0 
   59000        58998    50.004535    2.0160993    1141236.9  0.023343116    176.65116    921.77221    6.7946225   0.40202479    169.45451            0 
   59500        59498    50.011159    1.8766323    1134272.8  0.023486437    175.19285     920.4126    5.2950717   0.40203636    169.49574            0 
   60000        59998     49.99444    1.5469662    1128000.9  0.023617025    172.41263    917.38326    2.5134654   0.40377833    169.49539            0 
   60500        60498    50.005327    1.6830199    1120274.9    0.0237799    173.23264     918.3655     3.350685   0.40127588    169.48068            0 
   61000        60998    50.008834    1.9938913    1112132.1  0.023954012    175.22791    920.41301    5.3486584   0.40028199    169.47897            0 
   61500        61498    50.006184     1.848567    1104595.8  0.024117442    172.48354    917.62916     2.594314   0.39600103    169.49322            0 
   62000        61998    50.013412    1.6723012    1095457.5   0.02431863    171.21326    916.46659    1.3141553   0.40017745    169.49893            0 
   62500        62498    50.009436    2.0316827    1086230.2  0.024525212    171.69239    916.88646     1.803786   0.40047735    169.48812            0 
   63000        62998    50.024912    1.7428157    1075292.8  0.024774671    170.63331      916.058   0.73730451   0.39839892    169.49761            0 
   63500        63498    49.947221    1.7199456    1063802.6  0.025042264    164.92068    909.18769   -5.0890357   0.42843103    169.58128            0 
   64000        63998    50.010886    1.0265642    1048871.6  0.025398748    160.59662    905.81231   -9.3280013   0.39359832    169.53102            0 
   64500        64498    50.080719    1.1770593    1032833.9  0.025793136    156.67848    902.93475   -13.241654   0.39097878    169.52915            0 
   65000        64998    49.944678    1.2370766    1018584.7  0.026153963    155.96311    900.19221   -14.048586   0.40784145    169.60385            0 
   65500        65498    50.016438    1.3660893      1000057  0.026638506    148.70344    894.00185   -21.315206   0.41856554    169.60008            0 
   66000        65998    50.059145   0.43722232    981532.12  0.027141268    144.54181     890.4766    -25.44839   0.39413965    169.59606            0 
   66500        66498    50.007361   0.69595966    964141.55  0.027630824    137.22376    882.38691   -32.868554    0.4033384    169.68897            0 
   67000        66998    50.112074   0.21651558    945049.21  0.028189036    132.78792    879.51141   -37.229594    0.3910087    169.62651            0 
   67500        67498    49.917847    2.6067963    927312.27  0.028728215     125.9376    869.76691   -44.243641   0.43173328    169.74951            0 
   68000        67998    50.128248  -0.24148485    917553.35  0.029033763    118.00761    864.97211   -51.999049   0.37667091    169.62999            0 
   68500        68498    50.234662    1.0931064     905216.6  0.029429449    117.84421     866.3944   -52.142555   0.37004676    169.61672            0 
   69000        68998    50.122474    1.2404092    898701.29  0.029642804     106.1357    853.01416    -63.89851   0.37379795    169.66041            0 
   69500        69498    50.297501     2.979138     897958.9  0.029667311    96.853558    846.34011   -73.255358   0.37921058    169.72971            0 
   70000        69998    50.203684    2.0688819    906691.57  0.029381575    92.127981    840.21656   -78.041433   0.36583231    169.80358            0 
   70500        70498    50.065904    4.1628206    926321.25  0.028758949    87.803687     833.8392   -82.582009   0.43454198    169.95115            0 
   71000        70998    50.076815    4.7785226    953491.34  0.027939452    82.754534    828.95263   -87.529421   0.37043208    169.91352            0 
   71500        71498    49.780693    7.2670199    986203.43  0.027012709    82.067427    823.85299    -88.33386   0.38439155    170.01689            0 
   72000        71998    49.862532    5.4655193    1026504.6  0.025952173    77.570694    820.57575    -92.87582   0.35609313    170.09042            0 
   72500        72498    50.032141    4.2695857    1065566.1   0.02500082    76.368874    821.90128   -93.867296   0.33418283    169.90199            0 
   73000        72998    49.931749    3.9326281    1110690.7  0.023985098    78.484492    822.52095   -91.852419   0.33699676    169.99991            0 
   73500        73498    49.893062    5.0225754      1158546  0.022994361    71.987872    815.44785   -98.383045   0.34888241    170.02203            0 
   74000        73998     49.78518    5.8752302      1212708  0.021967387     72.10826    813.96069   -98.307584   0.34435046    170.07149            0 
   74500        74498    50.029536    4.7352936    1269189.2  0.020989799    73.611956    819.10555    -96.84706   0.33190367    170.12711            0 
   75000        74998    49.990876    5.0794168    1331516.7  0.020007278    74.832697    819.75021   -95.565027    0.3392408    170.05848            0 
   75500        75498     49.85835    5.2113041    1397091.8    0.0190682    79.384194    822.32693   -91.104578   0.34804238    170.14073            0 
   76000        75998    49.944781    4.5941344    1469800.4  0.018124928    80.985983    825.21664   -89.352949   0.31637328    170.02256            0 
   76500        76498    49.934516    5.2755267    1541234.1  0.017284867     82.46529    826.54298   -88.099603   0.35248892     170.2124            0 
   77000        76998    49.925068    4.7735458    1623730.1  0.016406684    82.282657    826.21957   -88.303155   0.33179067    170.25402            0 
   77500        77498    49.918819    4.6596572    1709428.3  0.015584173    85.478383    829.32217   -84.986636   0.33560759    170.12941            0 
   78000        77998    49.910951    4.4362087    1798736.1  0.014810414    87.836631    831.56318   -82.660991    0.3272068    170.17041            0 
   78500        78498    49.955154    4.4661591    1896896.9  0.014044003    87.238406    831.62362   -83.261683   0.31665861    170.18343            0 
   79000        78998    49.816163    4.4141461    2004050.3  0.013293093    94.041359    836.35546   -76.658333   0.32376532    170.37593            0 
   79500        79498      49.9463    3.9000689    2113602.3  0.012604086    95.458684    839.71196   -75.252862    0.3266609    170.38488            0 
   80000        79998    49.984872    3.9921584      2223563  0.011980783    97.675229    842.50328    -73.02371   0.32627247    170.37267            0 
   80500        80498     50.00973     3.842044    2345800.4  0.011356476    96.738656    841.93712   -73.912737   0.32206427    170.32933            0 
   81000        80998    49.970362    3.2023199    2475708.1  0.010760568     105.6934    850.30523   -64.960564   0.31671897    170.33725            0 
   81500        81498    49.920726    3.7472805    2603725.2  0.010231505    108.04917    851.92138   -62.785779   0.34338082    170.49157            0 
   82000        81998    50.109239    3.2028442    2746368.7 0.0097000908     106.5725    853.25374    -64.15345   0.33264057    170.39331            0 
   82500        82498    49.992117    3.1784306    2893559.8 0.0092066617    108.13678     853.0728   -62.649812   0.33454394    170.45205            0 
   83000        82998    49.963882    2.3760986    3041776.6  0.008758048    108.64266    853.15793     -62.0643   0.31769204    170.38927            0 
   83500        83498    49.849506    2.8669475    3192230.9 0.0083452692     112.6946    855.50555     -58.3543   0.35433396    170.69457            0 
   84000        83998    50.106125      2.26048    3346316.3 0.0079610006    115.05372    861.68857   -55.734243   0.33290552    170.45506            0 
   84500        84498    49.749248    2.7713667      3508438 0.0075931301    119.23201    860.54901   -51.813887   0.36099889     170.6849            0 
   85000        84998    49.896676    2.2213825    3681355.2 0.0072364726    122.86416    866.37798   -48.015431   0.33904401    170.54055            0 
   85500        85498    49.957479    2.2633538    3855179.2 0.0069101913    121.86721    866.28708   -49.055874   0.34170915    170.58137            0 
   86000        85998    50.037969     2.245594    4037045.3 0.0065988919    125.68736    871.30661   -45.215403   0.34320739    170.55955            0 
   86500        86498    49.857176    2.4469696    4213260.7    0.0063229    129.14256     872.0678   -41.816895   0.35448003    170.60497            0 
   87000        86998    49.901328    2.0551453    4404709.4  0.006048078    132.05125     875.6344   -38.966641   0.37141863    170.64647            0 
   87500        87498    49.920958    1.9322611    4596454.3 0.0057957774    132.07227    875.94793   -39.008737   0.35686794    170.72414            0 
   88000        87998    49.975912    1.8543431    4789601.4 0.0055620549    130.80583    875.50037    -40.19369   0.34511556     170.6544            0 
   88500        88498    50.014565    1.8165102    4994194.1 0.0053341991    132.30034    877.57084   -38.733609   0.34602616    170.68792            0 
   89000        88998    49.938466    1.7841755    5199890.4 0.0051231899    134.48629    878.62284   -36.591594   0.35801037    170.71987            0 
   89500        89498     49.95079    1.6779708    5412989.6 0.0049214996    134.64769    878.96789   -36.477858   0.36220795    170.76334            0 
   90000        89998    49.996881    1.6610121      5618308 0.0047416457    137.86991     882.8769   -33.257466    0.3605787     170.7668            0 
   90500        90498    49.851549    1.5850285    5833157.9 0.0045669989    140.06543    882.90683   -31.175644   0.37128306    170.86979            0 
   91000        90998    49.924562    1.5978959    6031414.6 0.0044168786    141.99896    885.92833   -29.225079   0.36665024    170.85739            0 
   91500        91498    49.926835    1.4486124    6235440.4 0.0042723567    140.71985    884.68309   -30.410915   0.36420566    170.76656            0 
   92000        91998     50.01226    1.4523736    6429387.4 0.0041434781    141.53885      886.775   -29.641505   0.37098196    170.80937            0 
   92500        92498    49.877901    1.4570802    6634037.4 0.0040156581    142.18994      885.424   -29.154922   0.38307136    170.96179            0 
   93000        92998    49.971235    1.4419865    6841638.4 0.0038938079    144.18775     888.8126   -27.043886   0.37405371    170.85758            0 
   93500        93498    50.005385    1.2490988    7033505.5 0.0037875887    144.88286    890.01658   -26.312185   0.35869671    170.83635            0 
   94000        93998    49.955387    1.4189847    7206402.5 0.0036967164    144.57415    888.96284    -26.64732   0.35919468    170.86227            0 
   94500        94498    49.996449    1.2431546    7405431.3 0.0035973632    147.47771    892.47827   -23.648163   0.36685815    170.75901            0 
   95000        94998     49.98234    1.2526211      7565351 0.0035213206    146.95414    891.74446   -24.204354    0.3645877    170.79391            0 
   95500        95498    49.971233    1.2598461    7738307.7 0.0034426165    149.12331    893.74812    -22.18272   0.37822111    170.92781            0 
   96000        95998     49.98028    1.1611347    7896127.6 0.0033738089    150.63454    895.39416    -20.68779   0.37917919    170.94315            0 
   96500        96498     49.93371    1.2953532    8039981.6 0.0033134436    150.77534    894.84102   -20.552487   0.38470989    170.94312            0 
   97000        96998    49.969491    1.1834111    8185660.1  0.003254475    149.94673    894.54558   -21.281631   0.37419493    170.85416            0 
   97500        97498    49.980703    1.1589861    8309154.8 0.0032061054    148.56754    893.33347    -22.71489   0.37088246    170.91155            0 
   98000        97998    50.018487    1.1065672    8431041.1 0.0031597552    147.29825     892.6272   -23.983888    0.3743927    170.90775            0 
   98500        98498    50.069332    1.0137527    8561075.9 0.0031117614    148.15506    894.24166   -23.110733   0.36891975    170.89687            0 
   99000        98998    50.027696   0.99065837    8663737.8 0.0030748883    148.20609    893.67227   -23.141356    0.3716925    170.97576            0 
   99500        99498    50.061263    1.0704604    8740288.3 0.0030479573    148.17898    894.14533   -23.141595   0.37136835    170.94921            0 
  100000        99998    49.983381    1.0547164    8830671.7  0.003016761    149.05551    893.86134   -22.382881   0.38876268    171.04963            0 
  100500       100498    50.002703    1.0633671    8892879.2 0.0029956581    148.75152    893.84527   -22.596725   0.38107709    170.96717            0 
  101000       100998    50.105699   0.96184087    8928391.2 0.0029837431    147.29397    893.92246   -24.055852   0.37741171    170.97241            0 
  101500       101498    49.962747    1.1101902    8958552.8 0.0029736975    144.51399    889.01235   -26.859085   0.37080664    171.00227            0 
  102000       101998    50.039413   0.94629246      9029539 0.0029503196    144.96692    890.60769    -26.46122   0.37277352    171.05536            0 
  102500       102498     49.99785   0.96648728    9084093.1 0.0029326016    146.54092    891.56236   -24.832459   0.38126808    170.99211            0 
  103000       102998    49.993561    1.0332415    9114945.4 0.0029226753    146.69605    891.65357    -24.75171   0.37923974    171.06852            0 
  103500       103498    50.069107    0.9741063    9155819.3 0.0029096278    147.44573    893.52897   -24.071043   0.37856797    171.13821            0 
  104000       103998     49.81627    1.2381552    9195398.7  0.002897104    149.75334    892.06904   -21.753984   0.41001042    171.09731            0 
  104500       104498    49.907577    1.0378978    9286116.7 0.0028688015    150.43433     894.1106   -21.021243   0.38381179    171.07176            0 
  105000       104998    49.964506    0.9695618    9363237.8 0.0028451724    150.18518    894.70976   -21.234517   0.36894619    171.05075            0 
  105500       105498    49.992278   0.96708514    9414617.7  0.002829645    150.45956    895.39797   -21.015042   0.37513867    171.09946            0 
  106000       105998    49.953266    1.0351628    9461155.1 0.0028157266    147.62999    891.98707   -23.812974   0.36924304    171.07372            0 
  106500       106498    50.051791   0.94737756    9552545.4 0.0027887882    149.42592    895.25113   -21.911471   0.37136271    170.96603            0 
  107000       106998    49.987209   0.97669906    9610368.8 0.0027720087    149.29167    894.15455   -22.215306   0.37970687    171.12727            0 
  107500       107498    49.984035   0.98210614    9664724.7 0.0027564185    152.42218    897.23776    -19.10066   0.37492068    171.14792            0 
  108000       107998      50.0608   0.91986641    9692889.2 0.0027484092     150.6355    896.59496   -20.822945   0.37731332    171.08114            0 
  108500       108498    50.086415   0.91334849    9741989.8  0.002734557    151.02298    897.36413   -20.444476   0.38126814    171.08619            0 
  109000       108998    49.962219   0.93580297    9769723.9 0.0027267941    151.18081    895.67131   -20.301607   0.38189199    171.10053            0 
  109500       109498     49.95539   0.97711872    9799046.2 0.0027186346    149.31938    893.70813   -22.342125   0.38066534    171.28084            0 
  110000       109998    50.023554   0.93753445    9864057.4 0.0027007168    151.13613    896.54058   -20.305638   0.37409745    171.06767            0 
  110500       110498    49.928959    1.0223722      9897924 0.0026914761    150.88866    894.88355   -20.616925    0.3890008    171.11659            0 
  111000       110998    49.973889   0.91422398    9951815.2 0.0026769012    151.05232    895.71672   -20.470904    0.3691917    171.15404            0 
  111500       111498    49.937965   0.93461992     10004582 0.0026627825    151.70837    895.83745   -19.805685   0.37022205    171.14383            0 
  112000       111998    50.028161   0.99262267     10069476 0.0026456218    152.12515    897.59825   -19.371384    0.3712917    171.12524            0 
  112500       112498    49.991111    1.0177163     10151017 0.0026243701    155.19526    900.11627   -16.344992   0.37730407    171.16295            0 
  113000       112998    49.931584    1.1042194     10195126 0.0026130159    154.20851    898.24251   -17.489954   0.38322006    171.31524            0 
  113500       113498    49.926009    1.0519849     10265055 0.0025952151    152.56291    896.51383   -19.202037   0.39789196    171.36705            0 
  114000       113998    50.036437   0.98594308     10366099 0.0025699181    152.33365    897.93007   -19.106205   0.35616161    171.08369            0 
  114500       114498    49.970864    1.0758109     10441282 0.0025514132    152.11204    896.73135     -19.4014   0.36964068     171.1438            0 
  115000       114998    49.947884    1.0217409     10512310 0.0025341742     154.2172    898.49409   -17.309469   0.37338328    171.15329            0 
  115500       115498    50.016306    1.0170868     10559196 0.0025229218    154.14555    899.44199   -17.467339   0.35675211    171.25613            0 
  116000       115998    49.942709     1.073425     10575776 0.0025189665    154.64524    898.84501    -16.98652   0.36865601    171.26311            0 
  116500       116498    49.986736     1.024042     10592440 0.0025150036    154.41766    899.27348   -17.104763   0.34943453    171.17299            0 
  117000       116998    49.964871    1.0320142     10608090 0.0025112933    154.96736    899.49738   -16.506081   0.34399937    171.12944            0 
  117500       117498    50.029155     1.050755     10651619 0.0025010306     154.3803    899.86822   -17.030551   0.34116972    171.06968            0 
  118000       117998    49.971612    1.0094906     10725426 0.0024838199    154.12132    898.75178    -17.41167   0.33709012     171.1959            0 
  118500       118498    50.059578    1.0284488     10771216 0.0024732608    153.00064    898.94188    -18.56461   0.34359741    171.22165            0 
  119000       118998    50.010445    1.0174594     10818388 0.0024624765    153.28256    898.49168   -18.221903   0.35328381    171.15118            0 
  119500       119498     50.05491    1.0041476     10842774 0.0024569381    152.33232    898.20401    -19.23042   0.34474407    171.21799            0 
  120000       119998    50.019048    1.0152117     10840731 0.0024574014    151.73834    897.07565   -19.789493   0.34711973    171.18071            0 
  120500       120498    49.915802    1.0447444     10840902 0.0024573625    153.08674    896.88558   -18.512929   0.34441894    171.25525            0 
  121000       120998    50.055318   0.96980774     10863818  0.002452179    153.54497    899.42274   -17.959234   0.32981458    171.17439            0 
  121500       121498    50.032166    1.0524983     10876569 0.0024493042    151.23123    896.76401   -20.244926   0.32715106      171.149            0 
  122000       121998    50.015998    1.0551818     10928445 0.0024376777    150.84562    896.13748   -20.740331   0.33036433    171.25559            0 
  122500       122498    50.039182     1.027481     10996804 0.0024225244    153.38414    899.02146   -18.198717   0.33475183     171.2481            0 
  123000       122998    50.011509    1.0026691     11034011 0.0024143556    150.80203      896.027   -20.681821   0.33422621    171.14963            0 
  123500       123498    50.008242    1.0162778     11065420 0.0024075024    153.74955    898.92583   -17.705244   0.33507376    171.11972            0 
  124000       123998     49.99128    1.1053268     11067904 0.0024069622    153.69761    898.62115   -17.922912   0.33897154    171.28155            0 
  124500       124498    50.008582    1.0924114     11097179 0.0024006124    153.32368    898.50503   -18.355244   0.31864997    171.36028            0 
  125000       124998     50.04362    1.0032126     11179742 0.0023828838    153.23413    898.93758   -18.237636   0.32821484    171.14355            0 
  125500       125498    49.953598    1.0661981     11277296 0.0023622707    155.76438    900.12641   -15.854217   0.33648635    171.28211            0 
  126000       125998    49.998833    1.0187544     11350121 0.0023471138    154.75849    899.79458   -16.770724   0.32833211    171.20088            0 
  126500       126498    50.002117    1.0097547     11402807  0.002336269    155.52142    900.60644   -16.027689   0.32397758    171.22513            0 
  127000       126998    50.050518    1.0535173     11417636 0.0023332347    152.24874    898.05498   -19.369227    0.3308539    171.28711            0 
  127500       127498    50.051029    1.0424275     11460355 0.0023245376    153.82702    899.64088   -17.792988   0.33005657    171.28995            0 
  128000       127998     49.95718    1.0658892     11499142 0.0023166968    155.98246    900.39787   -15.655577    0.3306094    171.30743            0 
  128500       128498    49.964487    1.0412171     11508024 0.0023149088    154.37222    898.89651   -17.246193   0.34182554    171.27659            0 
  129000       128998    49.920319    1.0840838     11531888 0.0023101184    155.40511    899.27126    -16.33909   0.34432492    171.39988            0 
  129500       129498     49.99751   0.95766833     11570544 0.0023024004    158.50514     903.5215   -13.046306   0.32428602    171.22716            0 
  130000       129998    50.005085   0.97536063     11579523  0.002300615    158.37809    903.50733   -13.168134   0.32448323    171.22174            0 
  130500       130498    49.984241   0.99495751     11604004 0.0022957615    159.52416    904.34281   -12.129841   0.33806991    171.31593            0 
  131000       130998    50.041913   0.97981766     11642016 0.0022882656    158.06934    903.74736   -13.551303    0.3417751    171.27887            0 
  131500       131498    50.028791    0.9982232     11698985 0.0022771228    156.06632     901.5488   -15.591646   0.34727718    171.31069            0 
  132000       131998    49.969912   0.94445257     11783758 0.0022607412    158.82655    903.43167   -12.802128   0.32305895    171.30562            0 
  132500       132498    50.092421   0.95631132     11813500 0.0022550493    156.65121    903.08186   -14.930811   0.32687622    171.25515            0 
  133000       132998    49.943159   0.97986014     11870462 0.0022442283    156.12883    900.33532   -15.564417   0.35468881    171.33856            0 
  133500       133498    49.993177   0.96163733     11903317 0.0022380337    155.61295    900.56476    -16.15575     0.337668    171.43104            0 
  134000       133998    50.005631   0.93463516     11921407 0.0022346378    155.08365    900.22103   -16.570485   0.32877122    171.32536            0 
  134500       134498    50.063897   0.94291059     11937470 0.0022316308    154.86248    900.86809   -16.668469   0.33350157    171.19745            0 
  135000       134998    49.945907   0.96739445     11948399 0.0022295897    154.96156    899.20899    -16.71749   0.33623074    171.34282            0 
  135500       135498    49.933808    1.0001198     11957876 0.0022278225    155.35079    899.41792   -16.293053   0.33944797    171.30439            0 
  136000       135998    49.985839   0.97737753     11990439 0.0022217724    155.42149    900.26395   -16.215762   0.32583748    171.31141            0 
  136500       136498    49.990956   0.95113973     12050114 0.0022107696    156.42445    901.34315   -15.338605   0.33170007    171.43135            0 
  137000       136998    50.003857    0.9838875     12123568 0.0021973751    159.10126    904.21221   -12.645047   0.33732661    171.40898            0 
  137500       137498     49.99955   0.97172351     12174740 0.0021881392    158.50888    903.55565     -13.1672   0.33774309    171.33834            0 
  138000       137998     50.05667    0.9542698     12222945 0.0021795096    157.57119    903.46911   -14.023651   0.33049767    171.26435            0 
  138500       138498    50.017637   0.96984809     12251721 0.0021743905    158.34256    903.65884   -13.417917   0.33180536    171.42867            0 
  139000       138998    50.011802   0.97295616     12269670 0.0021712097    159.95498    905.18432   -11.791161   0.32084919     171.4253            0 
  139500       139498    49.992646   0.95710441     12295997 0.0021665609    159.39047    904.33436   -12.350145   0.32560557    171.41501            0 
  140000       139998    49.924492     1.029904     12304663 0.0021650349    157.65758    901.58591   -14.130315   0.34047575    171.44742            0 
  140500       140498    50.013768   0.97101204     12327646 0.0021609987    157.94046    903.19909   -13.790246   0.32322917    171.40748            0 
  141000       140998    50.106881    1.0061399     12326222 0.0021612483    156.37218     903.0183   -15.489942    0.3233405    171.53878            0 
  141500       141498    49.960668    1.0305247     12352359 0.0021566752    159.18416    903.65155    -12.63233   0.33380158    171.48269            0 
  142000       141998    49.990994   0.96641433     12354962 0.0021562208    158.03912     902.9584   -13.606767   0.31447454    171.33142            0 
  142500       142498    50.006351     0.965846     12344748 0.0021580048    158.62374    903.77185   -12.995137   0.31083892    171.30803            0 
  143000       142998    50.020235    1.0003211     12313075 0.0021635559    157.75421    903.10921   -14.028785   0.33245747    171.45054            0 
  143500       143498    50.005077    1.0493479     12266888  0.002171702    155.93919    901.06833   -16.012453   0.33064807      171.621            0 
  144000       143998     50.01042    1.0226374     12268762 0.0021713703    156.50463    901.71337   -15.409993   0.32982147     171.5848            0 
  144500       144498    49.961485    1.0630788     12285678 0.0021683806    157.58222    902.06177   -14.210475   0.33938597    171.45331            0 
  145000       144998    50.033633    1.0231384     12325618 0.0021613541    157.88036      903.435   -13.743632   0.31051283    171.31348            0 
  145500       145498    49.966525    1.0873659     12381123 0.0021516647    157.67208    902.22674   -14.029759   0.30287383    171.39897            0 
  146000       145998    50.004493    1.0086737     12468422 0.0021365997    158.37994    903.50036   -13.260635   0.30037156    171.34021            0 
  146500       146498    50.011772    1.0437481     12524601  0.002127016    157.35432     902.5832   -14.413848   0.30463227    171.46354            0 
  147000       146998     49.98429     1.021205     12578982 0.0021178205     157.3661    902.18548   -14.420312   0.30866942    171.47774            0 
  147500       147498     50.00159    1.0365073     12589715  0.002116015    159.15497    904.23213   -12.607628    0.3074897     171.4551            0 
  148000       147998    50.016203    1.0147421     12599072 0.0021144435    160.32431    905.61922   -11.463444   0.30476522    171.48299            0 
  148500       148498      49.9936    1.0320098     12598678 0.0021145097    160.38509    905.34319   -11.417541   0.32266903    171.47996            0 
  149000       148998    49.995493    1.0220044     12580207 0.0021176143    157.78962    902.77594   -13.931778   0.30663006    171.41477            0 
  149500       149498    49.903398    1.0694904     12575903  0.002118339    157.80545    901.41944   -13.938426   0.32176673    171.42211            0 
  150000       149998     49.99842    1.0501209     12583159 0.0021171175    156.12021    901.15015   -15.616064    0.3121629    171.42412            0 
  150500       150498    49.958126      1.04639     12591263 0.0021157549    156.88414    901.31365   -14.895941   0.31060165    171.46948            0 
  151000       150998    50.044615    1.0346717     12559606 0.0021210878     154.7702    900.48847   -17.054326   0.31206851    171.51245            0 
  151500       151498    50.005871    1.0369888     12568537 0.0021195805    155.14445    900.28541   -16.795963   0.33002246    171.61039            0 
  152000       151998    49.968766    1.0055884     12603981   0.00211362    153.81022    898.39827   -18.013307   0.31059437    171.51293            0 
  152500       152498    49.962673    1.0701457     12655939 0.0021049427    151.28697    895.78423   -20.481918   0.30764878    171.46124            0 
  153000       152998    49.889782    1.0854848     12727537 0.0020931015    152.33843    895.74953   -19.542179   0.32458975    171.55602            0 
  153500       153498    49.944064    1.0334301     12780341 0.0020844534    156.24013     900.4601   -15.609703   0.31965969    171.53018            0 
  154000       153998    50.004904   0.97976261     12798938 0.0020814248    156.82981    901.95636   -14.922785   0.30113377    171.45146            0 
  154500       154498    49.956129    1.0059442     12806792 0.0020801483    159.76678    904.16652   -12.023505   0.31884561    171.47144            0 
  155000       154998    49.974314    1.0370547     12804262 0.0020805593    157.26601    901.93674   -14.733568   0.32656569    171.67302            0 
  155500       155498     50.02501   0.94304643     12826443 0.0020769613    158.40129    903.82744   -13.466183   0.32037783    171.54709            0 
  156000       155998     50.01356    1.0052844     12815083 0.0020788024    157.07961    902.33515   -14.785158   0.31737055     171.5474            0 
  156500       156498     49.99301   0.95021825     12833732 0.0020757816    156.43326    901.38257   -15.469457   0.31611564     171.5866            0 
  157000       156998    50.001305   0.96731054     12839887 0.0020747867    156.39539    901.46831   -15.429918   0.31392627    171.51138            0 
  157500       157498    49.990749   0.96744159     12830904 0.0020762393    157.29537      902.211   -14.621104   0.30941372    171.60706            0 
  158000       157998    50.003183    1.0126772     12839593 0.0020748341     158.8754    903.97631   -12.995527   0.32462951     171.5463            0 
  158500       158498    50.040917   0.94101828     12902788  0.002064672    159.01936    904.68255   -12.712454   0.31947536    171.41234            0 
  159000       158998    49.948557    1.0437028     12931813  0.002060038    158.94265    903.22957   -13.013443    0.3354429    171.62065            0 
  159500       159498     49.94588   0.97522448     12977214 0.0020528309    158.48023    902.72726   -13.317441   0.32119143    171.47648            0 
  160000       159998    49.928626    1.0272983     13002447 0.0020488471    159.74557     903.7355   -12.237336   0.32893507    171.65397            0 
  160500       160498    50.001243   0.93752753     13022522 0.0020456887    159.49066    904.56265   -12.448957   0.31938652    171.62023            0 
  161000       160998    49.952434      1.00897     13025199 0.0020452682     159.1715    903.51619   -12.726795   0.31615286    171.58215            0 
  161500       161498    49.952098   0.96295198     13066107 0.0020388649    160.40639    904.74607   -11.488693   0.31101204    171.58407            0 
  162000       161998    50.009152   0.97908756     13120005  0.002030489    159.05524    904.24509   -12.725278    0.3119048    171.46862            0 
  162500       162498    50.042675     0.957662     13188595  0.002019929    160.04772    905.73709   -11.748915   0.30648902    171.49014            0 
  163000       162998    49.972038   0.96891699     13221586 0.0020148888    160.93522    905.57202   -10.849363   0.31499484    171.46959            0 
  163500       163498    49.957839   0.99199904     13220959 0.0020149844    159.69065    904.11587   -12.334591   0.31545047    171.70979            0 
  164000       163998    49.997624    1.0070038     13204937 0.0020174292     157.8154    902.83347   -14.179173   0.32483815    171.66973            0 
  164500       164498    49.980462   0.96478439     13212303 0.0020163044    158.49958    903.26191   -13.413252   0.31810135    171.59473            0 
  165000       164998    50.079968    1.0647943     13168175 0.0020230614    155.15143     901.3965   -16.920303   0.32302627     171.7487            0 
  165500       165498    50.059405   0.98272164     13206750 0.0020171524    156.31133       902.25   -15.554431   0.30710155    171.55866            0 
  166000       165998    50.010869   0.98584654     13239596  0.002012148    156.61798    901.83341   -15.254713   0.31231359    171.56038            0 
  166500       166498    50.043707   0.98266106     13259793 0.0020090831    155.82253    901.52727   -16.099275   0.31266488    171.60914            0 
  167000       166998    50.015416   0.99880507     13264044 0.0020084392    157.00921     902.2924   -14.986816   0.30888519    171.68714            0 
  167500       167498    49.968277   0.99192625     13265070 0.0020082839    156.94429    901.52506   -15.120379   0.30930157    171.75537            0 
  168000       167998    50.014548   0.98710931     13254340 0.0020099096     156.6275    901.89776   -15.339488   0.31107625    171.65591            0 
  168500       168498    50.018973     1.006884     13235047 0.0020128395    154.16322    899.49941   -17.658043   0.30692045    171.51434            0 
  169000       168998    50.063721    1.0180038     13230694 0.0020135018    155.04348    901.04647   -16.868621   0.30134561    171.61076            0 
  169500       169498    49.963554    1.0402171     13246475  0.002011103    155.91953    900.42992   -16.000313   0.30052479    171.61932            0 
  170000       169998    50.003163    1.0648289     13257319 0.0020094581    156.92242    902.02302    -15.07412   0.30334469     171.6932            0 
  170500       170498    49.950814    1.0565775     13300197 0.0020029799    160.07856    904.39911   -12.017405   0.30233581    171.79363            0 
  171000       170998    49.986657    1.0565421     13319527 0.0020000729    157.41163    902.26628   -14.476573   0.30602445    171.58218            0 
  171500       171498    50.000729    1.0151245     13373632 0.0019919813    157.89814    902.96247   -13.989253   0.29879683    171.58859            0 
  172000       171998    50.026036    1.0133984     13433895 0.0019830455    159.60143    905.04287   -12.255593   0.29503763    171.56199            0 
  172500       172498    49.991347    1.0309868     13472200 0.0019774073     159.9927    904.91724   -12.033523   0.29871887    171.72751            0 
  173000       172998    50.010498   0.99596664     13492864 0.0019743788      160.294     905.5039   -11.649171   0.29091433    171.65226            0 
  173500       173498    50.028958    1.0317272     13490762 0.0019746865    160.82974    906.31471   -11.199543   0.28928847       171.74            0 
  174000       173998     49.99546    1.0218974     13511668 0.0019716312    161.02689    906.01271   -10.890015    0.3045916    171.61231            0 
  174500       174498    50.040284    1.0214834     13523641 0.0019698856    160.54389    906.19763   -11.373088   0.31128402    171.60569            0 
  175000       174998    49.963023    1.0355901     13530486  0.001968889    159.62448    904.12695   -12.404039   0.30873885    171.71978            0 
  175500       175498    49.993075    1.0168484     13539553 0.0019675705    160.99012     905.9404   -11.011413   0.29119927    171.71033            0 
  176000       175998    49.979087   0.99043631     13539884 0.0019675225    160.75807    905.49992   -11.270302   0.28399186    171.74438            0 
  176500       176498    49.995672    1.0074508     13544318 0.0019668783    162.28178    907.27076    -9.801609   0.28459822    171.79879            0 
  177000       176998    50.000569    1.0338694     13520391 0.0019703591     159.5074    904.56936   -12.445248   0.29352509    171.65913            0 
  177500       177498    49.998856    1.0649421     13529635 0.0019690129    159.57065    904.60707   -12.410252   0.31826851    171.66263            0 
  178000       177998    49.997885    1.0193877     13568484 0.0019633752    160.30696    905.32892   -11.654642   0.31131525    171.65029            0 
  178500       178498    50.046732    1.0478431     13592704 0.0019598768    158.07176    903.82159   -13.966024   0.29826282    171.73952            0 
  179000       178998    49.918355    1.0432997     13624913 0.0019552437    162.06048    905.89736   -10.175247    0.3183932    171.91733            0 
  179500       179498    49.973827   0.97252211     13644641 0.0019524168     159.4655    904.12897   -12.624245    0.2899159    171.79983            0 
  180000       179998    50.013589   0.99632586     13664451 0.0019495862     160.3848    905.64076   -11.526077   0.28977718     171.6211            0 
  180500       180498    50.044407   0.97339358     13664271 0.0019496119    160.92733    906.64252   -10.975419   0.29787197    171.60488            0 
  181000       180998    50.021883   0.98252686     13650961 0.0019515128    160.49102    905.87057   -11.451461   0.30342201    171.63906            0 
  181500       181498    50.011732   0.97531556     13661006 0.0019500779    158.98072    904.20901   -12.987063   0.30864982    171.65913            0 
  182000       181998    49.975627    1.0121219     13703362 0.0019440503    160.26655    904.95684    -11.85383   0.30871025    171.81167            0 
  182500       182498    50.005036   0.95659453     13768624 0.0019348357    161.44982    906.57832   -10.583276   0.30592919    171.72716            0 
  183000       182998    49.990558   0.99845069     13786003 0.0019323966    161.21199    906.12477   -10.823815   0.30741838    171.72839            0 
  183500       183498    50.013307   0.91948031     13825145 0.0019269255    161.26241    906.51418   -10.726827   0.29633064    171.69291            0 
  184000       183998    49.995758   0.96334964     13844689 0.0019242055    159.40838    904.39865   -12.577543   0.30227653    171.68365            0 
  184500       184498    50.007008   0.92100506     13858629 0.0019222699    160.52636    905.68426    -11.54382   0.30056316    171.76961            0 
  185000       184998    50.023215   0.95659678     13853710 0.0019229525    158.79485    904.19425   -13.197928   0.30426257    171.68852            0 
  185500       185498    49.981845   0.97401003     13884890 0.0019186343    160.72506    905.50799   -11.344991   0.32056178    171.74948            0 
  186000       185998    49.991514   0.97029471     13905494 0.0019157914    160.26718    905.19421   -11.724102   0.31802111    171.67327            0 
  186500       186498    50.036073   0.95732533     13923353 0.0019133341    159.98439    905.57538   -12.115007   0.30281024    171.79659            0 
  187000       186998    49.962931   0.99212292     13906387 0.0019156684    161.52949     906.0306    -10.61231   0.30044692    171.84135            0 
  187500       187498     50.04217   0.94939467     13890310 0.0019178856    159.74204    905.42389   -12.331721   0.30508791    171.76867            0 
  188000       187998    49.985751   0.96758374     13898667 0.0019167324    160.88498    905.72612   -11.110571   0.30131045    171.69424            0 
  188500       188498    50.009002   0.97814869     13893385 0.0019174612    161.16441    906.35203   -10.860318   0.30371533    171.72101            0 
  189000       188998    49.994293   0.96568468     13901481 0.0019163445    159.39904    904.36748   -12.729402   0.30659704    171.82184            0 
  189500       189498    49.964295   0.99975249     13903672 0.0019160425    160.83128     905.3527   -11.283205   0.31420678    171.80028            0 
  190000       189998    49.976183     1.040731     13880796 0.0019192002    159.07504    903.77361   -13.035207   0.30990163    171.80034            0 
  190500       190498    50.036673   0.98095869     13903295 0.0019160944    160.72267    906.32261   -11.247737   0.29605301    171.67435            0 
  191000       190998    49.997499   0.99245979     13927756 0.0019127293    159.37166    904.38786   -12.695997   0.29644055    171.77121            0 
  191500       191498    49.977489   0.99092268     13949515 0.0019097456    160.28497      905.003   -11.809252   0.29840639    171.79582            0 
  192000       191998     50.03027   0.97785745     13938257 0.0019112883     158.4617    903.96622    -13.58353   0.28808751    171.75714            0 
  192500       192498    49.981599    1.0159441     13937249 0.0019114265    157.34768    902.12695    -14.77095   0.29159956    171.82703            0 
  193000       192998    49.957515    1.0307383     13975298 0.0019062224    159.75398    904.17438   -12.354016   0.29589861    171.81209            0 
  193500       193498    50.015103    1.0261393     14015659  0.001900733    160.81258     906.0911   -11.227217   0.29579507      171.744            0 
  194000       193998     50.01852    1.0193494     14054403 0.0018954932    161.17759    906.50703   -10.816605   0.28580802    171.70839            0 
  194500       194498    50.016019    1.0040308     14093383 0.0018902506    161.45664    906.74881   -10.581679   0.28816119    171.75016            0 
  195000       194998    49.956498    1.0456369     14095207 0.0018900061    160.18078    904.58602   -11.861873   0.29115647     171.7515            0 
  195500       195498    49.987264    1.0558642     14080241  0.001892015    158.93087    903.79456   -13.163756   0.28627986    171.80835            0 
  196000       195998    50.000775    1.0258313     14073467 0.0018929256    159.06264    904.12765   -13.091318   0.28325335     171.8707            0 
  196500       196498     49.99716    1.0420304     14048529 0.0018962858    160.01544    905.02659   -11.995372   0.28848696    171.72232            0 
  197000       196998    50.018016    1.0260599     14039091 0.0018975606    160.14289    905.46482    -11.79814   0.28512287    171.65591            0 
  197500       197498    50.006511    1.0598548     14021717 0.0018999118    158.05836    903.20886   -13.916961   0.28464043    171.69068            0 
  198000       197998     50.04113     1.035831     14058498 0.0018949411    159.64903    905.31538   -12.489396   0.28792131    171.85051            0 
  198500       198498    49.988238    1.0384529     14083390 0.0018915919    158.08515    902.96335   -13.996066   0.28528665    171.79593            0 
  199000       198998    49.961752    1.0240962     14092785 0.0018903309    159.09871    903.58225   -12.971766   0.27924787    171.79123            0 
  199500       199498     50.04663    1.0025978     14058560 0.0018949328    157.63593    903.38424   -14.299855   0.28168815     171.6541            0 
  200000       199998    50.027156      1.03604     14036546 0.0018979047    157.66141    903.11954   -14.389666   0.28283208    171.76825            0 
  200500       200498    50.027009    1.0422525     14020667 0.0019000541    157.07451    902.53045    -15.01447   0.29108037     171.7979            0 
  201000       200998    49.982999    1.0283813     14048443 0.0018962974     157.4102    902.21035    -14.63185   0.29691756    171.74514            0 
  201500       201498    49.910846    1.0810181     14071633 0.0018931722    159.33894    903.06391   -12.892823   0.30303628    171.92873            0 
  202000       201998    50.011882    1.0318887     14081658 0.0018918245    160.48159    905.71212   -11.580277   0.29977877    171.76209            0 
  202500       202498    49.995485   0.98566553     14071451 0.0018931968    158.01066    902.99685   -14.031765   0.28382559     171.7586            0 
  203000       202998    50.001959   0.99376186     14054994 0.0018954136    156.08795    901.17062   -16.079198   0.27842857    171.88872            0 
  203500       203498    50.059236    1.0061535     14049111 0.0018962072    155.86699    901.80314   -16.193219   0.28578959    171.77442            0 
  204000       203998     50.01062   0.99912492     14073412  0.001892933    156.74476    901.95648   -15.264307   0.28780098    171.72127            0 
  204500       204498    50.000464    1.0039919     14096744 0.0018897999    154.96635    900.02674   -17.058683   0.28825373    171.73678            0 
  205000       204998    49.938623    1.0236582     14145724 0.0018832564     158.7361    902.87499   -13.359061   0.29923465    171.79593            0 
  205500       205498    50.006378   0.98374636     14195614 0.0018766378      159.773    904.92151   -12.466802   0.29344989    171.94635            0 
  206000       205998    49.979256   0.96369175     14253619 0.0018690008    158.57753     903.3219   -13.535126    0.2873889    171.82527            0 
  206500       206498    50.024643   0.97226246     14286380 0.0018647149    158.33659    903.75728   -13.761359   0.29823813    171.79971            0 
  207000       206998    49.855132    1.0090088     14293619 0.0018637706    160.84107    903.73585   -11.608318   0.32161844    172.12777            0 
  207500       207498    50.010709   0.96481966     14289993 0.0018642434    159.46777    904.68082    -12.59488   0.28654973     171.7761            0 
  208000       207998    49.972789   0.98525662     14278000 0.0018658093    159.61005    904.25804   -12.409667   0.29797483    171.72174            0 
  208500       208498    50.064336   0.93285654     14276451 0.0018660118     160.0921    906.10424   -11.929612   0.29631626    171.72539            0 
  209000       208998    49.951586   0.97040668     14262216 0.0018678743    160.72387    905.05592   -11.540614   0.29860641    171.96588            0 
  209500       209498    49.911034    1.0494414     14233115 0.0018716933    161.86076    905.58855   -10.465058   0.30285387    172.02296            0 
  210000       209998    49.954026    0.9933585     14254684 0.0018688612    162.27428    906.64268   -9.8940139   0.30557806    171.86271            0 
  210500       210498    49.944139    0.9965575     14272895 0.0018664767    163.02874    907.24983   -9.0784448   0.31489639    171.79229            0 
  211000       210998    50.053694   0.99437996     14284644 0.0018649416    159.46401    905.31757   -12.606951   0.28421433    171.78675            0 
  211500       211498    49.988992   0.96102126     14340281 0.0018577059    160.18287     905.0723   -11.940333   0.29148764    171.83171            0 
  212000       211998    50.012628   0.98174014     14369852 0.0018538831    161.47746     906.7191    -10.56955   0.30684449    171.74017            0 
  212500       212498    49.946579   0.98265633     14408011 0.0018489732    162.87106     907.1285   -9.3694755   0.30183797     171.9387            0 
  213000       212998    49.978855    1.0229371     14437603 0.0018451834    160.24446    904.98285   -11.902487   0.28446807    171.86247            0 
  213500       213498     50.04141   0.96566793     14512804 0.0018356223     162.1434    907.81392   -10.048543   0.28377192    171.90818            0 
  214000       213998      49.9613    1.0004182     14552639 0.0018305976    165.33882    909.81562   -6.8503456   0.29882776    171.89034            0 
  214500       214498     50.03331   0.97146225     14545598 0.0018314838    164.64057    910.19039   -7.4268859   0.29192732    171.77552            0 
  215000       214998    50.028931   0.98670687     14513334 0.0018355553    163.04106    908.52565   -9.1281513   0.28705242    171.88216            0 
  215500       215498    50.022082    1.0139503     14486485 0.0018389571    161.30866    906.69117   -10.781628   0.28779185    171.80249            0 
  216000       215998    50.087452   0.95141162     14490613 0.0018384333    159.88795    906.24454   -12.162398   0.28740019    171.76294            0 
  216500       216498    49.913538    1.0375684     14466868 0.0018414509    161.69584    905.46093   -10.584419   0.29477198    171.98549            0 
  217000       216998    50.005266     1.000933     14446850 0.0018440023     160.7609    905.89284     -11.4171   0.29125749    171.88674            0 
  217500       217498    49.959753    1.0197158     14425725 0.0018467027    159.47632    903.93006   -12.722719   0.27698129    171.92206            0 
  218000       217998    50.003151    1.0038093     14440830 0.0018447711    159.84362    904.94404   -12.197619    0.2778898    171.76335            0 
  218500       218498     50.00467    1.0069494     14451728   0.00184338    159.47373    904.59678   -12.617596   0.28038142    171.81094            0 
  219000       218998    49.877104    1.0691625     14496107 0.0018377366    162.90813    906.13033   -9.3117134   0.27944285     171.9404            0 
  219500       219498    49.991498    1.0405496     14551823 0.0018307002    161.65812     906.5849   -10.506104   0.27776599    171.88646            0 
  220000       219998    50.022002    1.0452488     14608488 0.0018235991    160.82094    906.20226    -11.20727   0.27267941    171.75553            0 
  220500       220498    49.971848    1.0328032     14686778 0.0018138782    161.97136    906.60533   -10.293974   0.27872935    171.98661            0 
  221000       220998     49.95675    1.0178737     14745768 0.0018066219    161.67256    906.08157   -10.600492   0.28189357    171.99116            0 
  221500       221498    50.026406    1.0053945     14770593 0.0018035855    161.37173    906.81868   -10.795775   0.28096074    171.88655            0 
  222000       221998    50.032856    1.0208699     14756134 0.0018053527    161.86394      907.407   -10.348724   0.28178793    171.93087            0 
  222500       222498    49.966989    1.0169212     14760491 0.0018048197    160.97733     905.5389   -11.198509   0.29029838    171.88554            0 
  223000       222998    50.029773    1.0331654     14763592 0.0018044407    162.52711    908.02423   -9.7119022   0.28648946    171.95252            0 
  223500       223498    49.968539    1.0388277     14719289 0.0018098718    161.19745    905.78212   -11.043429   0.27872944    171.96215            0 
  224000       223998     50.03854   0.98810815     14686855 0.0018138686      161.948    907.57576   -10.239606    0.2702489    171.91735            0 
  224500       224498    50.019154    1.0240005     14678178 0.0018149409    161.89516    907.23406   -10.299053    0.2787764    171.91544            0 
  225000       224998    49.960196    1.0432225     14707753 0.0018112913    161.99044    906.45079   -10.177836   0.28207925     171.8862            0 
  225500       225498    50.069407    1.0015324     14750945 0.0018059878    162.54155    908.62926   -9.6501993   0.27936522    171.91238            0 
  226000       225998    50.014357    1.0213066     14778781 0.0018025862    163.47804    908.74544   -8.7600003   0.28943859    171.94861            0 
  226500       226498    49.905702    1.0626087     14795591 0.0018005382    163.82262    907.47096   -8.5166194   0.33799958    172.00124            0 
  227000       226998     49.98385   0.99908233     14815651 0.0017981002    161.04238    905.85519   -11.012606    0.2884621    171.76652            0 
  227500       227498    49.973412    1.0158826     14823983 0.0017970897    161.27047    905.92775   -11.018275   0.28852611    172.00022            0 
  228000       227998    49.970816    1.0116929     14807390 0.0017991034    161.11105    905.72965   -11.176438   0.28918403    171.99831            0 
  228500       228498    49.980991    1.0048135     14800042 0.0017999966    162.04636    906.81658   -10.245073   0.28846052    172.00297            0 
  229000       228998    50.018708   0.97582231     14784448 0.0018018953    163.19798    908.53022   -8.9672483   0.28671207    171.87852            0 
  229500       229498    49.941425    1.0281792     14763913 0.0018044014    163.25731    907.43795   -9.0044437   0.29837812    171.96337            0 
  230000       229998    50.007914   0.97166855     14765557 0.0018042006    163.40074    908.57214   -8.8042146   0.28472294    171.92024            0 
  230500       230498    50.008259   0.99636704     14747455 0.0018064152    162.38616    907.56269   -9.7405591   0.28098183    171.84573            0 
  231000       230998    49.988501   0.99690046     14747126 0.0018064555    163.23713    908.11926   -9.0868679   0.31021719    172.01378            0 
  231500       231498    49.962235   0.99352467     14731871  0.001808326    162.21089    906.70162   -10.139452   0.30104291     172.0493            0 
  232000       231998    50.022975   0.98124543     14705468 0.0018115728    159.12727    904.52309   -13.065015   0.29321238    171.89908            0 
  232500       232498     50.00931   0.95307992     14716466 0.0018102189    160.99833    906.19053   -11.274111   0.28721955    171.98522            0 
  233000       232998    50.044941   0.94658813     14700372 0.0018122008    160.62021    906.34335   -11.469547   0.28668847    171.80307            0 
  233500       233498    50.024043   0.93913656     14684725 0.0018141317     161.6937    907.10543   -10.466764   0.29265462    171.86781            0 
  234000       233998    50.013851   0.96496836     14676318  0.001815171    161.25697    906.51684   -11.060001   0.28060926    172.03636            0 
  234500       234498     50.03135   0.96391498     14674194 0.0018154336    160.81271    906.33333   -11.380061    0.2905991    171.90217            0 
  235000       234998      49.9573   0.96010766     14687773 0.0018137553    161.63337    906.05056   -10.710534   0.30106969    172.04283            0 
  235500       235498    50.044949   0.95926472     14693790 0.0018130126    162.11368    907.83695   -10.128195   0.29035767    171.95152            0 
  236000       235998    49.961654    1.0511647     14673986 0.0018154594    161.64279    906.12487   -10.602045   0.30079158    171.94405            0 
  236500       236498    49.945659    1.0175199     14693534 0.0018130442    162.76542    907.00915   -9.5345553   0.30237862     171.9976            0 
  237000       236998    49.937382     1.070703     14717738 0.0018100625    162.76977    906.89018   -9.4451165   0.29397881    171.92091            0 
  237500       237498    49.958864   0.95658774     14816476 0.0017980001    164.01416    908.45466   -8.3159712   0.27746591    172.05267            0 
  238000       237998     50.06049   0.94396073     14845809 0.0017944476    161.58427    907.53911   -10.572745   0.27721289     171.8798            0 
  238500       238498    49.976599   0.97308921     14857798 0.0017929996    162.23477    906.93954   -10.075928   0.27832373    172.03238            0 
  239000       238998    50.003805   0.96669207     14837869 0.0017954078    159.63727    904.74745    -12.62324   0.28599067    171.97452            0 
  239500       239498    49.998076    1.0018749     14805700 0.0017993088     159.1513     904.1761   -13.160357   0.28561723    172.02604            0 
  240000       239998    50.021036    1.0013484     14780696 0.0018023526    158.93124    904.29817   -13.299656   0.29560957    171.93529            0 
  240500       240498    50.064549   0.98072341     14773824 0.0018031909    158.49884    904.51416   -13.771958   0.27829292    171.99251            0 
  241000       240998    50.003057   0.99709459     14768991  0.001803781    160.04611    905.14513    -12.30208    0.2635577    172.08463            0 
  241500       241498    50.060228    1.0020782     14767549 0.0018039572    158.86479    904.81572   -13.453805   0.26963769    172.04895            0 
  242000       241998    49.997584   0.97530366     14802827  0.001799658    160.76213    905.77961   -11.444462   0.26204417    171.94455            0 
  242500       242498    49.965774    1.0691926     14799426 0.0018000716    159.55217    904.09563   -12.736561   0.27861155    172.01012            0 
  243000       242998    50.015587     1.007906     14862445  0.001792439     162.1555    907.44124   -10.144416   0.28651011     172.0134            0 
  243500       243498    49.993784     1.027781     14879309 0.0017904074    162.47449    907.43533   -9.9243411   0.28760563    172.11122            0 
  244000       243998    49.994276    1.0251931     14859916 0.0017927441    162.24898    907.21715   -10.119773    0.2857821    172.08297            0 
  244500       244498    49.970915    1.0414814     14835186 0.0017957326    163.23789    907.85796   -9.1682097   0.27617143    172.12993            0 
  245000       244998    50.062952    1.0308099     14792187 0.0018009525    160.47272    906.46425   -11.790291   0.26915076    171.99386            0 
  245500       245498    49.980717     1.042066     14784297 0.0018019136    160.81042    905.57655   -11.630312   0.27440153    172.16633            0 
  246000       245998    49.938542    1.0762206     14814870  0.001798195    160.32711     904.4648   -11.976991   0.29632449    172.00778            0 
  246500       246498    50.015686    1.0309793     14872461 0.0017912318    159.75995    905.04716   -12.472399   0.27867622    171.95367            0 
  247000       246998    49.986408    1.0151644     14904031 0.0017874377    161.16302    906.01396   -11.105706    0.2846024    171.98413            0 
  247500       247498    50.061183   0.99069893     14893363  0.001788718    159.46486    905.43001   -13.009975   0.27209567    172.20274            0 
  248000       247998    49.974214    1.0240096     14876775 0.0017907125    161.16002    905.82925   -11.277665   0.27560418    172.16209            0 
  248500       248498    49.981002     1.030182     14830212 0.0017963348    159.28848    904.05886   -13.007042   0.28224225    172.01328            0 
  249000       248998    50.032941    1.0037398     14815293 0.0017981437     159.5202    905.06452   -12.827494   0.27614157    172.07155            0 
  249500       249498    49.985456    1.0176177     14825050 0.0017969602    161.35921    906.19596   -11.002382     0.284265    172.07733            0 
  250000       249998    49.984712    1.0103941     14848580 0.0017941127    161.75608    906.58174   -10.568454   0.27892908     172.0456            0 
  250500       250498    49.918881    1.0358707     14883262 0.0017899319     163.8825    907.72722    -8.514979    0.3401414    172.05734            0 
  251000       250998    50.015327    1.0297762     14906338  0.001787161    161.98601    907.26787   -10.450442   0.29255252     172.1439            0 
  251500       251498     49.92927    1.0377916     14926677 0.0017847258    162.17048       906.17   -10.284099   0.30559584    172.14898            0 
  252000       251998    50.013275   0.98015098     14929897 0.0017843409    159.78455    905.03583   -12.589811   0.27493751    172.09942            0 
  252500       252498    50.034288   0.98630271     14914541  0.001786178    159.95399    905.51838   -12.443667   0.28263244    172.11503            0 
  253000       252998    50.044527   0.96587606     14897971 0.0017881647    160.20629    905.92326   -12.157924   0.28351791     172.0807            0 
  253500       253498    49.935658    1.0049709     14870641 0.0017914511    159.41695    903.51165   -13.023066   0.29599879    172.14402            0 
  254000       253998    50.008547   0.97598134     14833725 0.0017959094    156.75998    901.94081   -15.600304   0.29354448    172.06674            0 
  254500       254498    49.974633    1.0062694     14808717 0.0017989422    158.25691    902.93239   -14.193392   0.28501685    172.16528            0 
  255000       254998    49.966457   0.95150301     14795270 0.0018005772    162.77308    907.32672   -9.5742815   0.27865872     172.0687            0 
  255500       255498    50.061039   0.94886917     14751926 0.0018058677     159.8019    905.76491   -12.463034   0.27539144    171.98954            0 
  256000       255998    50.007728    0.9594544     14767017 0.0018040222    160.10424    905.27286   -12.176919   0.29134192    171.98982            0 
  256500       256498    50.066892   0.97700624     14799806 0.0018000253    160.03088    906.08112   -12.380856   0.28248372    172.12925            0 
  257000       256998    49.970052    1.0173947     14833574 0.0017959276    157.64769    902.25491   -14.855046   0.30313491     172.1996            0 
  257500       257498    49.942341   0.97873934     14876526 0.0017907424     159.6223    903.81658   -12.766408   0.30049124    172.08821            0 
  258000       257998     50.01079   0.95180266     14859234 0.0017928263    157.53898    902.75323   -14.818011   0.28349396    172.07349            0 
  258500       258498    49.959982   0.98112998     14838026 0.0017953888    159.43583    903.89299   -12.974828   0.27892336    172.13174            0 
  259000       258998    50.035813   0.92301355     14806874 0.0017991661    159.98749    905.57461   -12.300479   0.27072832    172.01724            0 
  259500       259498     50.05395   0.95687585     14767061 0.0018040168    158.81049    904.66787   -13.479874   0.27763216    172.01273            0 
  260000       259998    49.965639    1.0026539     14778141 0.0018026642    159.67096    904.21241    -12.66477   0.28186728    172.05386            0 
  260500       260498    50.024451    1.0343371     14809206 0.0017988828    159.75152    905.16933   -12.754298   0.28506556    172.22075            0 
  261000       260998    49.986274   0.98678906     14866685 0.0017919278    159.93046    904.77941   -12.600861   0.28780244    172.24352            0 
  261500       261498    50.062041   0.96248923     14852277 0.0017936661    158.42784    904.40578   -13.962273   0.27681463     172.1133            0 
  262000       261998    49.959482    1.0461436     14801228 0.0017998524    157.54864    901.99834   -14.944437   0.27822491    172.21485            0 
  262500       262498    50.000068   0.96726571     14831160 0.0017962199    159.72449    904.77897   -12.509202   0.26533341    171.96835            0 
  263000       262998    49.992102   0.98445378     14856012 0.0017932151     159.0794    904.01519   -13.224593   0.26131405    172.04268            0 
  263500       263498    50.059782   0.97530057     14905506 0.0017872607    158.93683    904.88112   -13.386274   0.27363554    172.04947            0 
  264000       263998    50.020708    1.0533233     14932989 0.0017839714     159.7703    905.13234   -12.690278   0.27690108    172.18368            0 
  264500       264498    49.990932   0.98692072     14989246 0.0017772759    161.51436    906.43271   -10.905113   0.27469613    172.14478            0 
  265000       264998    50.022564     1.040472     14975698 0.0017788837    160.70907    906.09877   -11.748772   0.27554217     172.1823            0 
  265500       265498    49.955065    1.0273789     14950923 0.0017818315    160.29572    904.67961   -12.182158    0.2699182    172.20796            0 
  266000       265998    50.023125   0.97729574     14923494 0.0017851065    160.40524     905.8033     -11.9141    0.2572887    172.06205            0 
  266500       266498    49.976034    1.0802707     14876931 0.0017906936    158.83308    903.52943   -13.536742    0.2777381    172.09208            0 
  267000       266998    49.978198    1.0069692     14910638 0.0017866456    162.18867    906.91728   -10.226274     0.266974    172.14797            0 
  267500       267498    50.020745    1.0193552     14894169 0.0017886212    160.58849    905.95108    -11.82408   0.26904768    172.14352            0 
  268000       267998    50.036352   0.99613412     14923492 0.0017851067    159.55355     905.1487   -12.839071   0.26056964    172.13205            0 
  268500       268498    50.033972    1.0422666     14924966 0.0017849305     159.9389     905.4986   -12.588391   0.27501738    172.25228            0 
  269000       268998    49.961531    1.0291426     14927460 0.0017846322    160.01315    904.49339   -12.393004   0.28301601    172.12314            0 
  269500       269498    50.027767    1.0416962     14916148 0.0017859856    159.23561    904.70285   -13.228719   0.26388422    172.20045            0 
  270000       269998    49.987601    1.0147927     14910326  0.001786683    158.93873    903.80744   -13.540162    0.2601152    172.21877            0 
  270500       270498    50.018239    1.0302185     14880721 0.0017902376    158.40659    903.73184   -13.991503   0.27658698    172.12151            0 
  271000       270998    49.939371    1.0667261     14852225 0.0017936724    158.48542    902.63545   -13.991441   0.27859868    172.19827            0 
  271500       271498    50.026107    1.0211531     14855648 0.0017932591    157.46514    902.90763   -14.972042   0.26823741    172.16895            0 
  272000       271998    49.989568    1.0177417     14906290 0.0017871668    158.11114    903.00917   -14.297537    0.2654604    172.14322            0 
  272500       272498    50.017217    1.0360684     14976993   0.00177873    156.97298      902.283   -15.455516   0.26918591    172.15931            0 
  273000       272998    50.016959    1.0041784     15063015  0.001768572    157.01847    902.32464   -15.388501   0.27501013    172.13196            0 
  273500       273498    49.985612   0.98355369     15096228 0.0017646809    156.81756    901.65664   -15.664226   0.27186316    172.20993            0 
  274000       273998    50.001368   0.99462739     15075653 0.0017670894    155.67941    900.75326   -16.754838   0.26556923    172.16868            0 
  274500       274498    50.029794    1.0107078     15050262 0.0017700706    156.77302    902.27046   -15.699469   0.27375598    172.19873            0 
  275000       274998    50.010015   0.95713747     15020791 0.0017735434    157.71615    902.91885   -14.767184   0.26757486    172.21576            0 
  275500       275498    49.959281   0.97626489     14998704 0.0017761552    159.64963    904.09635   -12.747832   0.26750597    172.12996            0 
  276000       275998    49.974615    1.0233571     15004548 0.0017754635    160.41816    905.09336   -12.149559   0.26947141    172.29824            0 
  276500       276498    49.962401    1.0157362     15027116  0.001772797    160.86217    905.35537   -11.741086   0.28491769    172.31834            0 
  277000       276998    50.006314   0.96921044     15072412 0.0017674694     160.4432    905.59076   -11.998569   0.27791038    172.16386            0 
  277500       277498    50.037967   0.98422672     15099508 0.0017642976    160.20992    905.82913   -12.269449     0.280109    172.19926            0 
  278000       277998     49.99378   0.99033118     15122044 0.0017616683    160.60451     905.5653   -11.863004   0.27317007    172.19434            0 
  278500       278498    49.993029   0.95399226     15140036 0.0017595748    159.05588    904.00548   -13.403949   0.26536492    172.19447            0 
  279000       278998    50.062493   0.94460245     15153724 0.0017579855    159.82073    905.80542   -12.636855   0.27112905    172.18645            0 
  279500       279498    49.989729   0.94290576     15189506 0.0017538441    162.04997     906.9504   -10.479839   0.26951066     172.2603            0 
  280000       279998    50.035181   0.99020255     15201325 0.0017524805    161.28277    906.86046   -11.260967   0.27422345    172.26951            0 
  280500       280498    50.019424   0.97803516     15234799 0.0017486299    161.52752    906.87043   -10.887293   0.27560319    172.13921            0 
  281000       280998    50.034373   0.96274098     15258856 0.0017458731     159.3103    904.87597   -13.151387   0.26979127     172.1919            0 
  281500       281498    49.993767   0.96807552     15278271 0.0017436545    159.25227    904.21286    -13.20597   0.28510446    172.17314            0 
  282000       281998    50.034295   0.96989535     15293771 0.0017418873     161.1416    906.70611   -11.617398   0.28148192    172.47752            0 
  282500       282498    50.023836   0.96472754     15275009 0.0017440268    160.84499    906.25364   -11.798722   0.27423122    172.36948            0 
  283000       282998    50.014132   0.97104898     15252808 0.0017465654    160.18681    905.45087    -12.33177   0.26199937    172.25658            0 
  283500       283498    50.061899   0.97910574     15255370  0.001746272    160.97635    906.95219   -11.385123   0.25871943    172.10276            0 
  284000       283998    49.961788    1.0188801     15285635 0.0017428144    162.17112    906.65519   -10.254461   0.26729306    172.15829            0 
  284500       284498     49.98597   0.96125946     15332007 0.0017375433    161.53144    906.37585   -10.961148   0.28033456    172.21225            0 
  285000       284998    50.015861    1.0094844     15334691 0.0017372392    160.17783    905.46765   -12.484053    0.2715216    172.39037            0 
  285500       285498    49.987262   0.99792458     15332241 0.0017375168    162.32738    907.19103   -10.323548   0.27252741     172.3784            0 
  286000       285998    49.939836    1.0437883     15301023 0.0017410617    161.68306    905.84003   -10.786765   0.26509054    172.20473            0 
  286500       286498    49.977249    1.0161993     15303713 0.0017407557    160.98729    905.70175   -11.487075   0.26774888    172.20661            0 
  287000       286998    49.958106    1.0255243     15320171 0.0017388856    159.78885    904.21806   -12.754125   0.26831817    172.27466            0 
  287500       287498    49.979216    1.0172125     15369545 0.0017332996    161.24954    905.99331   -11.417352   0.27504295    172.39185            0 
  288000       287998     50.05361   0.99798134     15362575  0.001734086    162.00262    907.85493   -10.536445    0.2748022    172.26426            0 
  288500       288498    49.965703    1.0568549     15325214 0.0017383135     162.3892    906.93161    -10.07873   0.27214464    172.19579            0 
  289000       288998    49.923969    1.0411172     15313889  0.001739599    163.65053    907.57105   -8.9365588   0.26964689    172.31744            0 
  289500       289498    50.024154   0.98746868     15310460 0.0017399886    160.70829    906.12169   -11.854393   0.26262341    172.30006            0 
  290000       289998    50.032722    1.0120419     15307084 0.0017403724     159.9614    905.50246   -12.600582   0.27019681    172.29179            0 
  290500       290498    50.043048    1.0065225     15293467  0.001741922    160.07707    905.77201   -12.480144   0.27600032    172.28122            0 
  291000       290998    49.986323   0.99937752     15289124 0.0017424168    159.94493     904.7946   -12.573924   0.26911654    172.24974            0 
  291500       291498    49.982154    1.0127985     15281145 0.0017433265     158.8907    903.67825   -13.681696   0.26068431    172.31172            0 
  292000       291998    50.031912    1.0030433     15279236 0.0017435444    156.65581     902.1848   -15.978043   0.26205876     172.3718            0 
  292500       292498    50.032103   0.98774908     15287730 0.0017425756    157.16284    902.69469   -15.347413   0.26317481    172.24708            0 
  293000       292998    50.001736   0.98367684     15291468 0.0017421497     160.1846    905.26394   -12.305279   0.26726379    172.22262            0 
  293500       293498    50.012869     1.036668     15250089 0.0017468768    159.36373    904.60897   -13.119872   0.27734607    172.20625            0 
  294000       293998    49.975629    1.0354994     15253868  0.001746444     159.8491    904.53942   -12.773462   0.26602847    172.35653            0 
  294500       294498    50.046252   0.99996155     15274131 0.0017441271    159.67011    905.41279   -12.947877   0.26309225     172.3549            0 
  295000       294998    50.004564    1.0065306     15320240 0.0017388778    158.02059    903.14207    -14.59527   0.25271095    172.36315            0 
  295500       295498    50.048106   0.97609656     15360098 0.0017343656    157.00069    902.77099     -15.4841   0.25881075    172.22598            0 
  296000       295998    50.022387     1.023445     15386672 0.0017313702    158.20775    903.59482     -14.2126   0.26795409     172.1524            0 
  296500       296498    50.054207   0.96742393     15420301 0.0017275944    161.62477    907.48599    -10.92425   0.26909481    172.27992            0 
  297000       296998    49.979074    1.0241466     15393806 0.0017305679    161.23328    905.97494   -11.383438   0.27420468    172.34251            0 
  297500       297498    49.977703    1.0114204     15386727  0.001731364    158.36208    903.08331    -14.37456   0.26646453    172.47018            0 
  298000       297998    50.008251   0.98201452     15392566 0.0017307072    158.92501    904.10143   -13.694536   0.27003306    172.34951            0 
  298500       298498    50.076277   0.98343824     15382122 0.0017318824    157.94082     904.1309   -14.579689   0.27669914    172.24381            0 
  299000       298998    50.030205   0.95399531     15406435 0.0017291493    160.51064    906.01421   -12.040058   0.27722609    172.27348            0 
  299500       299498    49.969063    1.0080804     15380250 0.0017320931    160.48376    905.07624   -12.105815    0.2750678    172.31451            0 
  300000       299998    50.014632   0.98317564     15352523 0.0017352213    157.22332    902.49482   -15.307155   0.26333033    172.26715            0 
  300500       300498    50.013295   0.94345162     15346659 0.0017358844    158.42395    903.67553   -14.144292    0.2652156    172.30303            0 
  301000       300998    49.953272    1.0214061     15313716 0.0017396186    160.46617    904.82335   -12.128598   0.28748547    172.30728            0 
  301500       301498    49.989489   0.97921705     15294807 0.0017417693    159.05932    903.95616   -13.569871   0.29802813    172.33116            0 
  302000       301998    49.861351   0.98504284     15309634 0.0017400825     160.5624    903.54985   -12.277318   0.30250607    172.53721            0 
  302500       302498    50.064556   0.98227065     15323243 0.0017385371    160.10049    906.11592   -12.622806   0.28353751    172.43976            0 
  303000       302998    49.938729   0.98179375     15347551 0.0017357835    161.63163    905.77209   -11.072114   0.28232061    172.42142            0 
  303500       303498    49.993852   0.96680457     15363847 0.0017339424     158.8932    903.85505   -13.655697   0.27919603     172.2697            0 
  304000       303998    49.952286   0.96939339     15389773 0.0017310213    159.24299    903.58547   -13.325124   0.28193872    172.28617            0 
  304500       304498    49.998982   0.94573232     15378300 0.0017323128    159.84587    904.88417    -12.76693   0.26599833     172.3468            0 
  305000       304998    49.958872    1.0187105     15306130 0.0017404808    161.60438      906.045   -11.177385   0.27198675    172.50977            0 
  305500       305498    50.020077   0.98012656     15260885 0.0017456409    161.74137    907.09401    -10.89496    0.2828696    172.35346            0 
  306000       305998    49.991367     1.014309     15226366 0.0017495984    161.05146    905.97629   -11.607911   0.28440382    172.37497            0 
  306500       306498    50.029914    1.0187678     15234621 0.0017486504    160.97171    906.47094   -11.663237    0.2703388    172.36461            0 
  307000       306998    50.046783   0.96199328     15294301  0.001741827    160.76004    906.51063   -11.793828   0.27202573    172.28184            0 
  307500       307498    49.975537    1.0318459     15343614 0.0017362289    161.45749    906.14643    -10.97764   0.26656894    172.16856            0 
  308000       307998    49.999541   0.98379406     15388260 0.0017311916    161.28003    906.32667    -11.36253   0.26329087    172.37927            0 
  308500       308498    50.019922    1.0070091     15400009 0.0017298708    159.19317     904.5435   -13.451813   0.26287969     172.3821            0 
  309000       308998    49.992905    1.0165607     15411937  0.001728532    160.08781    905.03556   -12.581068    0.2717785     172.3971            0 
  309500       309498      49.9511    1.0452598     15379715 0.0017321534    158.64149    902.96631   -13.961299   0.28278909       172.32            0 
  310000       309998    50.012904    1.0002844     15370292 0.0017332153    157.98983    903.23558   -14.546956    0.2574312    172.27935            0 
  310500       310498    49.992051    1.0221415     15370851 0.0017331523    160.87661    905.81165   -11.661528   0.25870667    172.27944            0 
  311000       310998    50.019636    1.0135049     15379648 0.0017321609    161.22612     906.5722   -11.382868    0.2719289    172.33706            0 
  311500       311498     49.97902     1.036023     15401166 0.0017297408    162.28333    907.02418   -10.343505   0.27226358    172.35457            0 
  312000       311998    50.040381    1.0075276     15428520 0.0017266741    160.23523    905.89041   -12.479979   0.26420442      172.451            0 
  312500       312498     50.02811    1.0250707     15458808 0.0017232911     160.4722    905.94454    -12.10289   0.25917698    172.31592            0 
  313000       312998    50.012011   0.99214501     15479710 0.0017209642    161.18186     906.4143   -11.373736   0.25514807    172.30045            0 
  313500       313498    49.938372    1.0428367     15490308 0.0017197867    162.64353    906.77868   -10.032829   0.25734061    172.41901            0 
  314000       313998    49.996818    1.0096397     15479396 0.0017209991     163.3211    908.32716   -9.1842979   0.26502431    172.24037            0 
  314500       314498     49.94718    1.0624787     15436594 0.0017257709    160.83331     905.0997   -11.909364    0.2685323    172.47414            0 
  315000       314998    49.983441     1.039879     15439640 0.0017254305    162.45088     907.2576   -10.115773   0.27302909    172.29362            0 
  315500       315498    50.023255    1.0483243     15413406 0.0017283673    160.40048    905.80048   -12.221592   0.27026325    172.35181            0 
  316000       315998    49.945814    1.0573473     15438433 0.0017255654    161.44842    905.69446   -11.296904   0.30014722    172.44518            0 
  316500       316498    49.992902    1.0070892     15487164 0.0017201359    161.53927    906.48697   -11.117994   0.26261223    172.39466            0 
  317000       316998    50.015297    1.0054886     15513660  0.001717198    160.98435    906.26577   -11.632358   0.26183906    172.35487            0 
  317500       317498    50.046215    1.0140551     15509226  0.001717689    158.81559    904.55771    -13.73655    0.2569433     172.2952            0 
  318000       317998    49.962364    1.0197033     15522542 0.0017162154    162.36019    906.85284   -10.318699   0.26686298    172.41202            0 
  318500       318498    50.041828    1.0017033     15495858 0.0017191708    160.95199    906.62874   -11.536595   0.25745753    172.23112            0 
  319000       318998    49.999611    1.0180179     15510864 0.0017175076    161.00627    906.05395   -11.599945   0.27285955    172.33336            0 
  319500       319498     50.00262    1.0091499     15564137 0.0017116288    163.50419    908.59671    -9.166665   0.27634757    172.39451            0 
  320000       319998    49.967327    1.0504382     15582546 0.0017096068    162.35685    906.92346   -10.323984   0.28008856    172.40074            0 
  320500       320498    49.992051   0.97912017     15623962  0.001705075    162.29043    907.22545   -10.492273   0.26727504    172.51543            0 
  321000       320998    49.997172   0.98235936     15635431 0.0017038243    162.80019    907.81152   -9.9462857   0.25757036    172.48891            0 
  321500       321498    50.032819   0.99740945     15603785 0.0017072797    159.67539     905.2179   -12.899505   0.26431704    172.31058            0 
  322000       321998     50.07252    0.9315845     15588077 0.0017090002    158.88419     905.0183   -13.512248    0.2590547    172.13739            0 
  322500       322498    50.008673   0.96118713     15570748 0.0017109021    160.75402    905.93673   -11.940529   0.26872506    172.42582            0 
  323000       322998    49.993423   0.99659442     15553100 0.0017128434    160.38842    905.34388   -12.275198   0.27001451     172.3936            0 
  323500       323498    49.953807   0.99799336     15563628 0.0017116848    161.20695    905.57209   -11.418209   0.26859951    172.35656            0 
  324000       323998    49.928086    1.0500007     15599680  0.001707729    160.45104    904.43293   -12.290476   0.27874702    172.46277            0 
  324500       324498    49.966675   0.93666961     15670596 0.0017000008    160.22274    904.77963   -12.376153   0.27392267    172.32497            0 
  325000       324998    49.975428    1.0027654     15656883 0.0017014898    160.04367    904.73099   -12.693577   0.26889645    172.46835            0 
  325500       325498    50.029098   0.92885167     15661506 0.0017009875    161.67421    907.16127    -10.94451   0.26400263    172.35472            0 
  326000       325998    50.006352    0.9695695     15602225 0.0017074504    160.04679    905.19491   -12.567171    0.2653703    172.34859            0 
  326500       326498    50.014909    0.9629348     15588366 0.0017089685    161.24609    906.52173   -11.387193   0.27199399    172.36129            0 
  327000       326998    50.024543   0.95115764     15567916 0.0017112134    161.51661     906.9358   -11.071281   0.26669427     172.3212            0 
  327500       327498    49.946418    1.0581271     15544862 0.0017137512    160.88797    905.14301   -11.764054   0.28968315    172.36234            0 
  328000       327998    49.960533    1.0257691     15608125  0.001706805    161.05047    905.51584   -11.751336   0.28272528    172.51908            0 
  328500       328498     50.00658   0.96956985     15656270 0.0017015563    160.68478     905.8363   -12.096641   0.26643539    172.51498            0 
  329000       328998    50.017004   0.95382895     15663812 0.0017007371    161.43299    906.73983   -11.352832   0.27004505    172.51577            0 
  329500       329498    50.026637   0.98400921     15639113  0.001703423     161.8433    907.29369    -10.76659   0.26469546    172.34519            0 
  330000       329998    50.022679   0.98785761     15643876 0.0017029044    162.93071    908.32212   -9.5014309   0.26391549    172.16822            0 
  330500       330498    49.990326    1.0043522     15656521 0.0017015291    162.67755    907.58688   -10.002417   0.26721098    172.41276            0 
  331000       330998    49.991428   0.98923922     15677678 0.0016992328    162.04741    906.97315   -10.743701   0.25771711    172.53339            0 
  331500       331498    49.976698    1.0024191     15697476 0.0016970897    165.33999    910.04624   -7.3784772   0.26530918    172.45316            0 
  332000       331998    50.015854    1.0068261     15687611  0.001698157    164.70074    909.99046   -8.0475717   0.27040495    172.47791            0 
  332500       332498    49.969476    1.0479578     15685557 0.0016983793    162.41063    907.00926   -10.392797   0.26376853    172.53966            0 
  333000       332998    49.897273    1.0495581     15719368 0.0016947263    164.61069    908.13342   -8.1381575   0.30021415    172.44863            0 
  333500       333498    50.035518   0.98696877     15728999 0.0016936886    162.06848    907.65121   -10.506721   0.25066922    172.32453            0 
  334000       333998    50.025437   0.96482833     15744588 0.0016920116     160.8121    906.24462   -11.764232   0.25342124    172.32291            0 
  334500       334498    49.980536   0.99079905     15741913 0.0016922992    162.21801    906.98145    -10.36727   0.25657834     172.3287            0 
  335000       334998    50.019001    1.0041629     15751414 0.0016912783    164.11173    909.44834   -8.6489884   0.25426219    172.50646            0 
  335500       335498    49.991767    1.0155292     15728291 0.0016937648    163.17799    908.10878   -9.6250124   0.26167696    172.54133            0 
  336000       335998    49.984155    1.0364724     15719487 0.0016947135    163.86515    908.68251   -8.7997026   0.25641941    172.40843            0 
  336500       336498    49.994253   0.99756165     15728951 0.0016936937    163.01268    907.98051    -9.573387   0.26096396     172.3251            0 
  337000       336998    49.974189    1.0542602     15711416  0.001695584    161.28204     905.9509   -11.384655   0.27592078    172.39078            0 
  337500       337498    50.041122    1.0126732     15715565 0.0016951363    161.96665    907.63288   -10.803092   0.25332684    172.51641            0 
  338000       337998    49.998397    1.0261354     15714102 0.0016952941    162.02702     907.0566   -10.597358   0.25986758    172.36451            0 
  338500       338498    50.036182    1.0004623     15702382 0.0016965595    161.65192    907.24455   -10.970836   0.25077607    172.37198            0 
  339000       338998    50.011883    1.0098473     15684367 0.0016985082    160.15104    905.38159    -12.56977   0.25525251    172.46556            0 
  339500       339498    50.008124    0.9910202     15701887 0.0016966131    159.60535    904.77988   -13.130684   0.25877888    172.47725            0 
  340000       339998    50.020794   0.99776365     15696307 0.0016972161    159.82734    905.19066   -12.944514   0.25002831    172.52182            0 
  340500       340498    49.999025    1.0359769     15703934 0.0016963919    159.26795    904.30689   -13.334253    0.2676884    172.33452            0 
  341000       340998    49.942213    1.0068133     15760905 0.0016902599    159.96359    904.15598   -12.770507   0.26547634    172.46862            0 
  341500       341498    50.090485   0.99326637     15780280 0.0016881846    158.87267    905.27446   -13.769877   0.25627533    172.38627            0 
  342000       341998    50.018777   0.98460522     15805607 0.0016854794    160.48419    905.81746   -12.114506   0.26188235    172.33681            0 
  342500       342498    50.015535   0.97255327     15828063 0.0016830882    161.58056    906.86551   -11.105301   0.26015774     172.4257            0 
  343000       342998    49.980085   0.98116196     15835182 0.0016823316    163.15743    907.91414   -9.6127884   0.26008074    172.51014            0 
  343500       343498    49.957817    1.0366087     15797556 0.0016863385    163.00815    907.43305   -9.8435064   0.27528989    172.57637            0 
  344000       343998    50.012959   0.96563671     15787389 0.0016874245    161.71704    906.96362   -10.972176   0.27263387    172.41658            0 
  344500       344498    49.993795   0.97583648     15770903 0.0016891884    163.78539    908.74641   -8.9319843   0.26757524     172.4498            0 
  345000       344998    50.044536   0.98266591     15746677 0.0016917871    162.99729    908.71439   -9.6428422   0.25993304     172.3802            0 
  345500       345498    49.971415   0.99389312     15802254 0.0016858371    162.45911    907.08664   -10.340242    0.2570424    172.54231            0 
  346000       345998    50.009353   0.95310389     15877599 0.0016778371    162.19775    907.39059   -10.603618   0.26552167    172.53585            0 
  346500       346498    49.965228    0.9731871     15905294 0.0016749157    163.16727    907.70261   -9.5359113   0.27130663    172.43188            0 
  347000       346998    49.988503   0.97492757     15875243 0.0016780862    163.22656    908.10872   -9.5196166   0.25983993    172.48634            0 
  347500       347498     50.00676   0.96550425     15838715 0.0016819562    163.58804    908.74225   -9.0728213   0.27006987    172.39079            0 
  348000       347998    50.009583   0.98177029     15811175 0.0016848859    163.72399    908.92026    -9.029816   0.27294331    172.48086            0 
  348500       348498    49.980467   0.97798163     15847369 0.0016810378    162.55912    907.32152   -10.221374    0.2487247    172.53177            0 
  349000       348998     50.00772   0.96744087     15877636 0.0016778333    160.97794    906.14644    -11.77502   0.25548565    172.49747            0 
  349500       349498    50.030997   0.97152389     15871408 0.0016784916    161.03175    906.54711   -11.773347   0.27318253    172.53192            0 
  350000       349998    50.006503   0.99677424     15821727 0.0016837622    162.09538    907.24576   -10.657526   0.27778578    172.47512            0 
  350500       350498    50.039257   0.98148132     15790673 0.0016870735    161.67169    907.31014   -10.962036   0.26549828    172.36823            0 
  351000       350998    49.975532   0.98945551     15805231 0.0016855195     160.5233    905.21218   -12.308224   0.25527075    172.57626            0 
  351500       351498    50.017638    0.9841389     15828556 0.0016830358     160.2107      905.527    -12.63369    0.2595782    172.58481            0 
  352000       351998    50.024946   0.96889801     15844388 0.0016813541    162.31942    907.74461   -10.369578   0.25377697    172.43522            0 
  352500       352498    50.039177   0.98645413     15829995 0.0016828828    161.54673    907.18397   -11.206962    0.2479746    172.50572            0 
  353000       352998    50.030678    1.0092494     15792516 0.0016868766    159.00527    904.51588   -13.692409    0.2607219    172.43695            0 
  353500       353498    50.007461   0.98855651     15781243 0.0016880816    159.28429    904.44895   -13.464958   0.26049906    172.48875            0 
  354000       353998    49.960736    1.0225624     15785249 0.0016876532     159.1503     903.6187   -13.674866   0.25935144    172.56582            0 
  354500       354498     50.00721   0.99096868     15831052 0.0016827704    161.05267    906.21357    -11.72409   0.25111723    172.52564            0 
  355000       354998    50.004085    0.9942308     15863383 0.0016793408    160.27933    905.39367   -12.466094   0.25416996    172.49125            0 
  355500       355498    49.958012    1.0576692     15905766  0.001674866    160.00901    904.43682   -12.771153   0.25200459    172.52816            0 
  356000       355998    49.952098    1.0445147     15949142 0.0016703109    161.82257    906.16226   -10.810337   0.25025191    172.38266            0 
  356500       356498    50.011468    1.0138459     16000253 0.0016649753    161.47978    906.70414   -11.264723   0.26121184    172.48329            0 
  357000       356998    50.046991     0.993538     16036578 0.0016612039    161.20219    906.95587    -11.72092    0.2519322    172.67118            0 
  357500       357498    50.008489   0.98750212     16006724 0.0016643022    161.72848    906.90845   -11.150257   0.25442463    172.62432            0 
  358000       357998    50.015968     1.017858     15952300 0.0016699803    161.41358    906.70499   -11.418625   0.26251192    172.56969            0 
  358500       358498    49.945068    1.0274473     15953689 0.0016698349     160.4826    904.71753   -12.227156   0.24756604    172.46219            0 
  359000       358998    50.040633    1.0159389     15980360 0.0016670479    161.05123    906.71017   -11.675842   0.25985386    172.46721            0 
  359500       359498    50.001458    1.0209078     15994139 0.0016656117    161.99266    907.06786   -10.604268   0.26972723     172.3272            0 
  360000       359998    49.980338    1.0318973     15986990 0.0016663566    161.51577    906.27626   -11.286889   0.26097677    172.54168            0 
  360500       360498    50.037406    1.0173607     15992557 0.0016657766    161.49252    907.10338   -11.402154   0.25908578    172.63559            0 
  361000       360998    50.002085   0.98961073     16000994 0.0016648981    162.59557     907.6801   -10.296407   0.24606893     172.6459            0 
  361500       361498    49.976505    1.0379859     16036832 0.0016611776     164.8056    909.50898   -8.0097639   0.24799518    172.56737            0 
  362000       361998    49.993789    1.0456814     16104887 0.0016541579    164.30614    909.26706   -8.5219423   0.25489065    172.57319            0 
  362500       362498    49.992643    1.0283525     16149364 0.0016496021    162.59708    907.54091   -10.252147   0.26607808    172.58314            0 
  363000       362998    50.005692    1.0080467     16161152 0.0016483989     162.8658    908.00409   -9.8765335   0.26250763    172.47982            0 
  363500       363498    49.976914   0.99344495     16153847 0.0016491443     161.1213    905.83077   -11.722458   0.25401545    172.58974            0 
  364000       363998    49.989742   0.99489617     16133940 0.0016511791     160.6543    905.55492   -12.060902   0.25785679    172.45735            0 
  364500       364498    49.984953   0.98236108     16118164 0.0016527953    160.78429    905.61354   -11.905792   0.24745645    172.44263            0 
  365000       364998    49.991051   0.98518635     16102987 0.0016543531    160.27977    905.19989   -12.564062   0.26044792    172.58338            0 
  365500       365498    50.008896    1.0280422     16089195 0.0016557713    159.62722    904.81325   -13.229557   0.26174577    172.59503            0 
  366000       365998    50.031939   0.96545748     16097987 0.0016548669    161.12342    906.65281   -11.658777   0.26709848     172.5151            0 
  366500       366498    50.014826   0.96355395     16081795 0.0016565331    159.76451     905.0389   -13.051086   0.25616103    172.55943            0 
  367000       366998    50.022625   0.95034951     16083953 0.0016563109    160.73987    906.13048   -12.132624   0.25725127    172.61524            0 
  367500       367498    50.018551   0.98952621     16077802 0.0016569445    159.90806    905.23797   -12.958504   0.27337487    172.59319            0 
  368000       367998    49.960374   0.98703879     16085250 0.0016561773    158.70147    903.16447    -14.14759    0.2587929    172.59027            0 
  368500       368498    50.043987   0.94968095     16101795 0.0016544756    159.24225    904.95117    -13.43524   0.25365963    172.42383            0 
  369000       368998    49.948943   0.98195971     16117182  0.001652896    160.32268    904.61535   -12.436913   0.27952808    172.48006            0 
  369500       369498    49.988275   0.95417626     16152936 0.0016492374     161.0969    905.97565   -11.878774   0.25522771    172.72045            0 
  370000       369998    49.994518   0.97067464     16148548 0.0016496855    160.85959    905.83138   -11.961492   0.25316794    172.56791            0 
  370500       370498    49.990427   0.97155483     16148477 0.0016496928    161.25923    906.17005   -11.632881   0.25347174    172.63864            0 
  371000       370998     50.07143   0.96198902     16142224 0.0016503319    160.35292    906.47078   -12.582034   0.27037821    172.66457            0 
  371500       371498    50.019705    1.0008565     16123219 0.0016522771    159.25659    904.60368   -13.386917   0.26016394    172.38334            0 
  372000       371998    50.010565   0.99800766     16145770 0.0016499693     159.1839     904.3948   -13.604273   0.25449002    172.53369            0 
  372500       372498    49.961846   0.97465247     16152027 0.0016493302    160.11739    904.60233   -12.700822   0.26790557     172.5503            0 
  373000       372998    49.970459   0.96485567     16144122 0.0016501378    160.56196    905.17524   -12.372169   0.24661558    172.68751            0 
  373500       373498    50.003168    0.9969463     16087567 0.0016559388    161.88584    906.98651   -11.039713   0.26296483    172.66258            0 
  374000       373998    49.958904    1.0394615     16040262 0.0016608224    161.28668    905.72778   -11.610366   0.26429283    172.63275            0 
  374500       374498    50.000355   0.99225312     16058865 0.0016588984    162.55541    907.61417   -10.184631   0.25565915    172.48438            0 
  375000       374998    49.991335    0.9927074     16074136 0.0016573224    162.75714    907.68149    -10.06391   0.25975538    172.56129            0 
  375500       375498    49.960235    1.0360309     16075679 0.0016571634    161.94413    906.40507   -10.998647   0.28194972    172.66083            0 
  376000       375998    49.956385    1.0259297     16080502 0.0016566663     160.1756    904.57916    -12.63675   0.26175161     172.5506            0 
  376500       376498    49.956148    1.0080495     16123821 0.0016522154    162.35102    906.75106   -10.467505   0.26010298    172.55842            0 
  377000       376998    50.036715   0.97356771     16138191 0.0016507442    161.62181    907.22237   -11.055094    0.2502758    172.42662            0 
  377500       377498    49.948685    1.0486464     16134337 0.0016511385    160.90383    905.19265   -12.005838   0.25160944    172.65806            0 
  378000       377998    49.975511    1.0154036     16189461 0.0016455166    161.59897    906.28753   -11.299078   0.24576244    172.65228            0 
  378500       378498    50.013672    1.0199232     16214306 0.0016429952    161.30273    906.55993   -11.715041   0.25055754    172.76721            0 
  379000       378998    50.019124   0.99961498     16225318   0.00164188    161.96004    907.29847   -10.909507   0.24779262    172.62175            0 
  379500       379498    50.037274   0.98587405     16209546 0.0016434776    162.87629    908.48519   -9.8794966   0.25201881    172.50377            0 
  380000       379998    50.024438    1.0579693     16199511 0.0016444957    160.55875    905.97638   -12.164131   0.26714779    172.45573            0 
  380500       380498    49.980957    1.0031143     16264595 0.0016379151    163.07679     907.8465   -9.8015418   0.25393312     172.6244            0 
  381000       380998    50.040523   0.98307241     16272359 0.0016371336    160.05579    905.71309   -12.768734   0.23908978    172.58543            0 
  381500       381498    49.989571    1.0042038     16317011 0.0016326535     161.7666    906.66466   -11.205459   0.25521504    172.71684            0 
  382000       381998    49.994698    1.0059084     16294427 0.0016349164    162.35479    907.32926   -10.640892   0.26968783    172.72599            0 
  382500       382498    50.002307   0.99189052     16250564 0.0016393293    163.48255     908.5704   -9.4344611   0.24812479    172.66888            0 
  383000       382998      49.9406    1.0375215     16206928 0.0016437431      163.692    907.86034   -9.2195439   0.25906352    172.65248            0 
  383500       383498     50.03022    1.0065334     16168977 0.0016476012     163.5893    909.09308   -9.1988331    0.2723432    172.51579            0 
  384000       383998     49.97856   0.99814622     16169238 0.0016475746    164.86219    909.59618   -7.9727524   0.25624255     172.5787            0 
  384500       384498    50.021571   0.97600181     16168667 0.0016476328    164.52447    909.89937   -8.3722537   0.25740036    172.63932            0 
  385000       384998    50.030875    0.9955682     16147298 0.0016498132    161.74646       907.26   -11.190761   0.26074086    172.67648            0 
  385500       385498    49.972023    1.0064523     16139413 0.0016506193    163.89449    908.53107    -8.891874   0.24837409    172.53799            0 
  386000       385998    49.977953    1.0114022     16143307 0.0016502211    164.63406    909.35901   -8.3411097   0.25415646    172.72101            0 
  386500       386498    49.947581   0.98465036     16165969 0.0016479078    164.20414    908.47651    -8.754957   0.27187688    172.68722            0 
  387000       386998    49.969961    1.0076964     16195306 0.0016449227    163.87757    908.48343   -9.1099153   0.25899656    172.72849            0 
  387500       387498    49.940186    1.0441085     16219314 0.0016424878    162.21488    906.37705    -10.72934   0.28734476    172.65687            0 
  388000       387998    50.050491   0.96730537     16236916 0.0016407073     163.5158    909.32165   -9.2390209   0.26281473    172.49201            0 
  388500       388498    50.032005   0.98497546     16209832 0.0016434486    163.03899    908.56936   -9.7675366   0.25554576    172.55098            0 
  389000       388998    49.931676    1.0241877     16224220 0.0016419911    164.83054    908.86591   -8.4156581   0.27601696    172.97018            0 
  389500       389498    50.049418   0.96843973     16250967 0.0016392887    162.14313    907.93299   -10.862297   0.26257714    172.74285            0 
  390000       389998    50.038166   0.98459523     16261268 0.0016382502    160.01222     905.6344   -12.831933   0.25567912    172.58847            0 
  390500       390498    50.002101    0.9880884     16267221 0.0016376507    160.83145    905.91623    -12.13489   0.24938383    172.71696            0 
  391000       390998    49.998014   0.97555442     16294421  0.001634917    163.61653    908.64041   -9.3449212   0.26657894    172.69488            0 
  391500       391498    49.989227   0.96977481     16306349 0.0016337211    163.94374    908.83669   -8.8996893   0.26398517    172.57945            0 
  392000       391998    50.024432   0.96348048     16299723 0.0016343852    163.47706     908.8946   -9.4567736   0.25132719     172.6825            0 
  392500       392498    49.986102    0.9914643     16284270 0.0016359362    162.40229    907.24866   -10.512425   0.25108166    172.66363            0 
  393000       392998    49.949392    1.0139503     16315044 0.0016328504    164.36366    908.66301   -8.5656888   0.26167407    172.66768            0 
  393500       393498    49.987164   0.97062685     16351373 0.0016292225     164.5413    909.40351    -8.430479   0.25452094    172.71726            0 
  394000       393998    49.980051    1.0091349     16342703 0.0016300869     163.7952     908.5514   -9.1999686   0.26841779    172.72675            0 
  394500       394498    50.028134   0.97614052     16335998  0.001630756    162.97513    908.44782   -9.9293096   0.25102139    172.65341            0 
  395000       394998    50.064598    1.0153458     16305868 0.0016337693    162.42919    908.44524   -10.471964   0.26609103    172.63506            0 
  395500       395498    49.976206    1.0320884     16289147 0.0016354463    164.41488     909.1138   -8.5801691   0.25797018    172.73708            0 
  396000       395998      49.9882   0.99440802     16269958 0.0016373752    163.75664    908.63427   -9.2631864   0.25519691    172.76463            0 
  396500       396498    49.958481    1.0315195     16275138 0.0016368541    163.69686    908.13165   -9.1678619   0.26184652    172.60287            0 
  397000       396998     50.02909    1.0201699     16274012 0.0016369673    162.40907    907.89602   -10.466315   0.24367485    172.63171            0 
  397500       397498    49.942365    1.0583417     16254636 0.0016389186    163.02834    907.22299   -10.075141   0.25982488    172.84366            0 
  398000       397998    49.934916     1.083674     16254111 0.0016389716    164.13344     908.2171   -8.9856328   0.25507427      172.864            0 
  398500       398498    50.031207    1.0364717     16264765  0.001637898    164.02546    909.54394   -8.9260003   0.25458972    172.69687            0 
  399000       398998    50.003237    1.0658189     16247177 0.0016396711    165.31609    910.41779   -7.6688835   0.24847984    172.73649            0 
  399500       399498    49.973672    1.0716238     16229747  0.001641432    164.79315    909.45431   -8.0216413   0.24912054    172.56568            0 
  400000       399998     50.02454    1.0514092     16252173  0.001639167    163.37761    908.79675   -9.5806907   0.23798888    172.72031            0 
  400500       400498    49.999519    1.0900693     16291255 0.0016352347    163.32581    908.37211   -9.6272707   0.24101337    172.71207            0 
  401000       400998    50.020298    1.0338948     16329949   0.00163136     164.1869    909.54284   -8.8187919   0.24961198    172.75608            0 
  401500       401498    50.010723    1.0502179     16316530 0.0016327017    163.69857    908.91182     -9.19886   0.23589294    172.66153            0 
  402000       401998    50.046011    1.0554057     16281035 0.0016362612    162.84552     908.5846   -10.054487   0.25389761    172.64611            0 
  402500       402498    50.031176    1.0595128     16260821 0.0016382953    161.41002    906.92805   -11.572931   0.25245947    172.73049            0 
  403000       402998    49.985846    1.0423454     16276633 0.0016367037    163.16332    908.00588   -9.5915717   0.24104213    172.51385            0 
  403500       403498    49.977599    1.0536399     16268979 0.0016374737    164.91707    909.63674   -8.0469381   0.24266162    172.72134            0 
  404000       403998    49.995274    1.0569026     16263593  0.001638016    164.56565     909.5487   -8.5690223   0.23670759    172.89796            0 
  404500       404498    49.958184    1.0648835     16270777 0.0016372927     163.7754    908.20577   -9.2146491   0.23867639    172.75137            0 
  405000       404998    49.997711    1.0388985     16295184 0.0016348405    163.48644     908.5058    -9.319138   0.25326094    172.55232            0 
  405500       405498    50.096253     1.030588     16287319 0.0016356299    161.37664    907.86438   -11.405879   0.25569159    172.52683            0 
  406000       405998    50.036774    1.0062721     16303732 0.0016339833    162.38538    907.98683   -10.640486   0.25135059    172.77452            0 
  406500       406498    49.964519    1.0352302     16272460 0.0016371235    161.46961    905.99438   -11.587866   0.25420655    172.80327            0 
  407000       406998    50.025714    1.0048527     16262566 0.0016381195    161.50122    906.93785   -11.403422   0.25263397    172.65201            0 
  407500       407498    50.024277   0.98826331     16268617 0.0016375102    161.64514    907.06037   -11.364162   0.23997651    172.76932            0 
  408000       407998    50.002513   0.99968286     16279214 0.0016364442    163.01856    908.10948   -10.046435   0.24519597     172.8198            0 
  408500       408498    49.987651    1.0170832     16286358 0.0016357265    162.69394     907.5634   -10.228104   0.26870529    172.65334            0 
  409000       408998    49.973669    1.0309569     16329793 0.0016313756    162.89963    907.56073   -10.090627    0.2635054    172.72675            0 
  409500       409498    49.948924    1.0063368     16390348 0.0016253484    165.19639    909.48879   -7.8110279   0.26682644     172.7406            0 
  410000       409998    50.059266   0.98817942     16373832 0.0016269879    162.70184    908.63843   -10.253965   0.26843276    172.68737            0 
  410500       410498    50.021857   0.98962189     16341840 0.0016301729    163.12901    908.50817   -9.8409568     0.256313    172.71365            0 
  411000       410998    50.015075   0.95560407     16336583 0.0016306975    160.71769     905.9958    -12.27547    0.2452969    172.74786            0 
  411500       411498    50.038367   0.96005571     16333210 0.0016310343    161.86976    907.49494   -11.203916    0.2625155    172.81116            0 
  412000       411998    49.988237    1.0051898     16329891 0.0016313658     161.7626     906.6408    -11.30785   0.26960684    172.80085            0 
  412500       412498    50.017531   0.98399494     16328932 0.0016314616    159.32874    904.64344   -13.655719   0.26522845    172.71923            0 
  413000       412998    50.037123    1.0012428     16353625 0.0016289982     160.9525    906.55915   -12.129138   0.29015063    172.79149            0 
  413500       413498    50.005574   0.95988127     16380419 0.0016263336    160.40934    905.54587   -12.535988   0.28628659    172.65904            0 
  414000       413998    49.897287    1.0046021     16365553 0.0016278109    162.04756     905.5705   -11.163423   0.26033373    172.95064            0 
  414500       414498    49.995893   0.94166582     16346911 0.0016296673    162.05294    907.04522   -11.010301   0.25421966    172.80902            0 
  415000       414998    49.993405   0.95143276     16312421 0.0016331129     160.7483     905.7035   -12.204686   0.27368463     172.6793            0 
  415500       415498    49.993338   0.95668477     16301364 0.0016342207    159.70745    904.66165   -13.267093   0.25719554    172.71734            0 
  416000       415998    49.993097   0.98200304     16333831 0.0016309723    161.57702    906.52764   -11.505022   0.25998891    172.82205            0 
  416500       416498    50.041199   0.94972972     16361431  0.001628221    163.34087    909.00825   -9.6140843   0.25860801    172.69634            0 
  417000       416998    49.988634    1.0068479     16357529 0.0016286094    162.06765    906.95176   -10.943211   0.27735791     172.7335            0 
  417500       417498    49.963727    1.0033679     16384684 0.0016259102    162.14661    906.65958   -10.871742   0.27695233     172.7414            0 
  418000       417998    50.027874    0.9813941     16432772 0.0016211523    161.14671    906.61553   -11.896477    0.2559751    172.78722            0 
  418500       418498    50.027451   0.97138836     16457058 0.0016187599    162.11437    907.57688   -11.008137   0.25571452    172.86679            0 
  419000       418998    49.972209    1.0109454     16440999  0.001620341    161.56547    906.20482   -11.455458   0.26813733    172.75279            0 
  419500       419498    49.977971   0.97392554     16442931 0.0016201507    163.44674    908.17196   -9.5229597   0.25385245    172.71585            0 
  420000       419998    50.055892      1.00586     16408306 0.0016235695    163.53096    909.41729   -9.4685024   0.25151386    172.74795            0 
  420500       420498    50.030709    1.0186648     16386269  0.001625753    161.34891    906.85997   -11.669579   0.25670149    172.76179            0 
  421000       420998    49.986822    1.0232518     16401999 0.0016241939    162.37465    907.23176   -10.732795   0.28252702    172.82492            0 
  421500       421498    50.006638    1.0633051     16412232 0.0016231811    163.29525    908.44764   -9.7310841   0.27132478    172.75501            0 
  422000       421998    49.992779    1.0237725     16450939  0.001619362    163.34959    908.29546   -9.7394498    0.2380639    172.85097            0 
  422500       422498    49.999003    1.0092887     16477749 0.0016167272    164.41816    909.45678   -8.5950408   0.25201804    172.76119            0 
  423000       422998    50.018507    1.0105809     16482919 0.0016162201    164.31248    909.64173    -8.511968   0.25185151     172.5726            0 
  423500       423498    50.031721    1.0466641     16463222 0.0016181539    161.33551    906.86165   -11.560719   0.24146782    172.65476            0 
  424000       423998    49.981046    1.0109943     16516948 0.0016128903    163.33941    908.11045   -9.7482645   0.25536836    172.83231            0 
  424500       424498    49.965996    1.0696623     16535475 0.0016110832    163.08085    907.62762   -10.150884   0.27135734    172.96038            0 
  425000       424998    50.034819    1.0232523     16559840 0.0016087127    162.52585    908.09817   -10.503748   0.26828679    172.76131            0 
  425500       425498    49.996536    1.0120533     16574968 0.0016072445    159.32892    904.33078   -13.554165   0.25585232    172.62723            0 
  426000       425998    50.008903     1.015496     16579383 0.0016068165     161.4328    906.61893   -11.473962   0.24413443    172.66262            0 
  426500       426498    49.989397    1.0148441     16542044 0.0016104434    162.08052      906.976    -10.87532   0.24400314    172.71183            0 
  427000       426998    50.053557   0.98917422     16505600 0.0016139993    160.30544    906.15697   -12.855505   0.24959445    172.91135            0 
  427500       427498    49.996429    1.0055611     16503973 0.0016141584    162.29126    907.29152     -10.8269    0.2571264    172.86103            0 
  428000       427998    49.994955     1.060667     16481426 0.0016163666    160.67502    905.65331   -12.343592   0.25256488    172.76605            0 
  428500       428498    49.889518    1.0404758     16532273 0.0016113952    163.03146    906.43863    -10.02088   0.27808865    172.77425            0 
  429000       428998    49.998545    1.0029622     16559315 0.0016087638    163.29084    908.32263   -9.6202353    0.2794924    172.63158            0 
  429500       429498     50.06761   0.98820715     16564206 0.0016082888    161.69846     907.7594   -11.356632   0.25165206    172.80344            0 
  430000       429998    50.030847    0.9948178     16529728 0.0016116434    160.20418    905.71731   -12.913921   0.24952442    172.86858            0 
  430500       430498    49.973501   0.99931677     16515832 0.0016129994    161.84965    906.50826   -11.337002   0.27186816    172.91479            0 
  431000       430998    50.076227   0.97950338     16500372 0.0016145106     160.6897    906.87903   -12.377109   0.26442651    172.80238            0 
  431500       431498    50.010768   0.96948379     16475157 0.0016169817     158.8644    904.07833   -14.075801   0.26468541    172.67552            0 
  432000       431998    50.059063   0.95254516     16434742  0.001620958    159.17924    905.11282   -13.726802   0.26037848    172.64566            0 
  432500       432498    50.081699   0.97764979     16417234 0.0016226866    162.76721    909.03808   -10.329858   0.27291864    172.82415            0 
  433000       432998    50.019756   0.99579735     16386745 0.0016257058    161.90052    907.24837   -11.132965    0.2839903     172.7495            0 
  433500       433498    50.027675   0.96189993     16390694 0.0016253141    162.69041    908.15628   -10.442234   0.26727318    172.86538            0 
  434000       433998    49.970467   0.96341169     16390935 0.0016252902    162.57474    907.18814   -10.689892   0.27529854    172.98933            0 
  434500       434498      49.9814   0.95104632     16369131 0.0016274551    160.22376    905.00007   -12.838812   0.26487812     172.7977            0 
  435000       434998     50.03729   0.92734061     16372381  0.001627132    160.91682    906.52596   -12.071903   0.26322647     172.7255            0 
  435500       435498    50.011581   0.99995563     16345991  0.001629759     159.9819    905.20794   -12.993501   0.27687206    172.69853            0 
  436000       435998     49.98594   0.95745887     16375707 0.0016268016     163.2779    908.12185   -9.6575378   0.26295227    172.67248            0 
  436500       436498     49.97876   0.99875971     16337312 0.0016306248    163.19062    907.92759   -9.9826961   0.29509459    172.87822            0 
  437000       436998    49.976359   0.97681667     16331040  0.001631251    163.00474    907.70593   -10.272323   0.27937677    172.99768            0 
  437500       437498    50.040535   0.94370454     16329707 0.0016313842    162.70002    908.35751   -10.446788   0.25405806    172.89275            0 
  438000       437998    50.012687   0.94749943     16312733 0.0016330817    161.63628    906.87881   -11.413783   0.26951621    172.78055            0 
  438500       438498     49.96363    1.0075733     16283684 0.0016359951    161.38822    905.89974   -11.683723   0.27042913    172.80152            0 
  439000       438998     50.04021   0.93673138     16300701 0.0016342871     162.7849    908.43753   -10.121567    0.2685648     172.6379            0 
  439500       439498    50.032569   0.96638115     16252926 0.0016390911    160.71921    906.25799   -12.298247   0.26045914      172.757            0 
  440000       439998    49.960612    1.0049082     16264787 0.0016378958    162.61652    907.08306   -10.528138   0.26864992    172.87601            0 
  440500       440498    49.928295    1.0245521     16318450 0.0016325096    163.67839    907.66338   -9.5537015   0.26468131    172.96741            0 
  441000       440998    49.939622    1.0319812     16374658 0.0016269058    163.80126    907.95504   -9.3700871   0.25560936    172.91574            0 
  441500       441498    50.003665   0.98763031     16399242 0.0016244669    162.97987    908.08795   -10.054662   0.26207328    172.77246            0 
  442000       441998    50.016441     0.981297     16392339  0.001625151    161.47287    906.77134   -11.610845   0.25449756    172.82922            0 
  442500       442498    50.032223   0.99322385     16400830 0.0016243096    161.35182    906.88545   -11.702787   0.25178107    172.80283            0 
  443000       442998    50.006812    1.0805772     16404578 0.0016239385    161.04778    906.20277   -12.077839   0.27688617    172.84874            0 
  443500       443498     49.97891    1.0120024     16445574 0.0016198903    163.83291    908.57212   -9.3022982   0.27107752    172.86413            0 
  444000       443998    50.036371     1.027863     16414776 0.0016229296    162.74916     908.3446   -10.387281   0.26719315    172.86925            0 
  444500       444498    49.985174    1.0148285     16413139 0.0016230915    163.65542    908.48797   -9.3919549   0.25422254    172.79315            0 
  445000       444998    50.021215    1.0446155     16387903 0.0016255909    162.83169    908.20128   -10.306972   0.25050305    172.88816            0 
  445500       445498    50.017246   0.98777755     16428989 0.0016215256    162.75195    908.06241   -10.276338   0.25776427    172.77052            0 
  446000       445998    49.988052    1.0313282     16400757 0.0016243169     163.9411    908.81654   -9.1621176    0.2631942    172.84003            0 
  446500       446498     49.94602    1.0261095     16341967 0.0016301603    164.16366    908.41278    -9.080946   0.26275733    172.98185            0 
  447000       446998    50.008503    0.9929459     16250615 0.0016393241    163.12781    908.30798    -10.03756   0.25695304    172.90842            0 
  447500       447498    49.989322     1.043201     16160350 0.0016484807    162.96912    907.86348   -10.105844   0.25913984    172.81583            0 
  448000       447998    50.014887    1.0152032     16115527 0.0016530657    162.13224    907.40754   -10.956557   0.26135923    172.82743            0 
  448500       448498    49.999863    1.0116637     16100294 0.0016546298    164.11502    909.16645   -8.9084084   0.24883047     172.7746            0 
  449000       448998    49.957518    1.0009852     16119764 0.0016526313    164.47956        908.9   -8.6768026   0.26061377    172.89574            0 
  449500       449498    50.038867    1.0102012     16147909 0.0016497508    164.11148    909.74411   -9.0971363   0.26631615     172.9423            0 
  450000       449998    50.044071      1.00145     16152345 0.0016492977      163.163    908.87318   -9.8613323   0.26722302    172.75711            0 
  450500       450498    49.932599    1.0348796     16176016 0.0016468843    164.07983    908.12897   -9.2002107    0.2971948    172.98285            0 
  451000       450998    49.973463    1.0420539     16195010 0.0016449527    165.08186     909.7399    -8.168544   0.29128712    172.95912            0 
  451500       451498    50.001123   0.98612671     16211974 0.0016432315    164.28372    909.35393   -8.8867743   0.25583394    172.91466            0 
  452000       451998    49.953376   0.98602224     16195614 0.0016448913    162.10038     906.4591   -11.099244   0.27422435     172.9254            0 
  452500       452498    49.972974   0.98841819     16202480 0.0016441943    162.30155    906.95231   -10.905774   0.27507369    172.93225            0 
  453000       452998    49.996449    0.9938588     16221927 0.0016422233     161.9118    906.91235   -11.282474   0.27127696      172.923            0 
  453500       453498    50.004869   0.97274652     16239230 0.0016404734    162.87263    907.99865   -10.259771   0.27082501    172.86157            0 
  454000       453998    50.063688   0.93564017     16246758 0.0016397133    161.69094    907.69343   -11.289855   0.26838135    172.71241            0 
  454500       454498    50.002159    0.9528104     16245285 0.0016398621    163.57742    908.66306   -9.7188344   0.26881722    173.02744            0 
  455000       454998    50.002836   0.96787536     16192334 0.0016452246    162.47099    907.56672   -10.623157   0.27014136      172.824            0 
  455500       455498    49.988269   0.99477385     16161571 0.0016483562     161.9648    906.84347   -11.132044    0.2848019    172.81204            0 
  456000       455998    49.992288   0.97521068     16161007 0.0016484137    161.91792    906.85648   -11.336582   0.27999466     172.9745            0 
  456500       456498    50.041544   0.94709739     16193027 0.0016451542    163.71525    909.38776   -9.5038772   0.25858371    172.96054            0 
  457000       456998    49.988639    0.9941502     16208568 0.0016435767    162.26026    907.14444    -10.90053   0.27709901    172.88369            0 
  457500       457498    50.001414   0.95009249     16274202 0.0016369482    161.94956    907.02411   -11.113603   0.28637936    172.77678            0 
  458000       457998    50.037181   0.94698856     16294424 0.0016349166    163.72729    909.33479   -9.3048973   0.26807167    172.76411            0 
  458500       458498    49.972463    1.0118395     16252694 0.0016391144    163.56851    908.21165   -9.5928896   0.27566876    172.88573            0 
  459000       458998    50.067016   0.97069842     16218329 0.0016425875      164.162    910.21409   -8.9871572   0.28728404    172.86187            0 
  459500       459498    49.998466   0.94991994     16179390 0.0016465408     162.0544    907.08501   -11.109483   0.27050063    172.89338            0 
  460000       459998    50.006465   0.95594403     16161322 0.0016483816    164.03427    909.18407   -9.1849131   0.25779957    172.96138            0 
  460500       460498    50.008875   0.97018527     16152647 0.0016492669    163.05385    908.23957   -10.183116   0.27518902    172.96178            0 
  461000       460998    49.976557    1.0306931     16154880 0.0016490389     164.3196    909.02375   -8.8169005   0.27580545    172.86069            0 
  461500       461498    49.985558   0.98776164     16197736 0.0016446759    165.95452    910.79279   -7.1567138   0.25259287    172.85864            0 
  462000       461998    49.997243    1.0221576     16208234 0.0016436106    164.23876    909.25115    -8.795709      0.28072    172.75375            0 
  462500       462498    50.037103    1.0050856     16238101 0.0016405876    164.11621    909.72255   -9.0245002   0.27025803    172.87045            0 
  463000       462998    50.012699    0.9943831     16243168 0.0016400758    164.73533    909.97803   -8.5308123   0.26383421     173.0023            0 
  463500       463498    50.039397    1.0149875     16189938 0.0016454681    163.51021    909.15074   -9.7396821   0.27270974    172.97718            0 
  464000       463998    50.033847    1.0176997     16146585 0.0016498861    162.16001    907.71783   -11.096192   0.25547253    173.00073            0 
  464500       464498    50.017521    1.0218119     16139714 0.0016505884     161.7277    907.04225   -11.506092    0.2611884     172.9726            0 
  465000       464998    49.969377    1.0302651     16141188 0.0016504377    162.78598    907.38314   -10.464317    0.2719666    172.97833            0 
  465500       465498    50.038586     1.005212     16133153 0.0016512597    162.12166    907.75011   -10.995005   0.26636504     172.8503            0 
  466000       465998    49.979756    1.0063355     16118933 0.0016527165     162.0566    906.80842   -10.947257   0.26437712    172.73948            0 
  466500       466498    49.996477    1.0474336     16105151 0.0016541308    162.32745    907.32843    -10.74038   0.25432057    172.81351            0 
  467000       466998    50.007988    1.0345144     16130442 0.0016515373    163.72424    908.89674   -9.4734926    0.2595708    172.93816            0 
  467500       467498    49.957248    1.0546408     16153688 0.0016491606    163.88361    908.30004   -9.4707636   0.26183821    173.09254            0 
  468000       467998    49.976039     1.039406     16169669 0.0016475307     164.5759    909.27233   -8.7408283   0.26324529    173.05348            0 
  468500       468498    49.978505    1.0216066     16163809 0.0016481279    164.86189    909.59507   -8.3279217   0.27760017    172.91222            0 
  469000       468998    49.975084    1.0379011     16162078 0.0016483045    164.11818    908.80037   -9.0327017   0.27754597    172.87333            0 
  469500       469498    49.981809    1.0262592     16197441 0.0016447058    162.68393    907.46633   -10.434786   0.25483047    172.86389            0 
  470000       469998    50.024942    1.0063132     16267169 0.0016376559      165.053    910.47814   -8.0254113   0.25978162    172.81863            0 
  470500       470498    49.990937    1.0269145     16282690 0.0016360949    166.86497     911.7834   -6.3664307   0.25686938    172.97454            0 
  471000       470998    50.015462    1.0113427     16295586 0.0016348002    165.53826    910.82212   -7.6982944   0.25929987    172.97725            0 
  471500       471498    49.964362    1.0351702     16344114 0.0016299462    165.19117     909.7136   -8.2643022    0.2927193    173.16276            0 
  472000       471998    50.016085    1.0220946     16386205 0.0016257594    164.74071    910.03386    -8.558896   0.27125743    173.02835            0 
  472500       472498     49.99635   0.97404511     16416515 0.0016227577    165.23324    910.23233   -7.9141804   0.25518821    172.89223            0 
  473000       472998    50.010336   0.99163246     16360627  0.001628301    162.53794    907.74543   -10.646577   0.27064621    172.91387            0 
  473500       473498    50.026361   0.97833598     16306056 0.0016337504    163.72634    909.17262   -9.4268548   0.25964258    172.89355            0 
  474000       473998    49.995859    0.9488635     16264807 0.0016378937    163.11538    908.10714   -10.052509   0.26801795    172.89987            0 
  474500       474498    49.979659   0.98123208     16215978 0.0016428257    164.65841    909.40879   -8.6473828   0.28406457    173.02173            0 
  475000       474998    50.073683   0.98842904     16150147 0.0016495222    162.99536    909.14679   -10.237665    0.2747116    172.95831            0 
  475500       475498    50.023172   0.99067925     16125995 0.0016519926    163.35504     908.7538   -9.9222267   0.27534931    173.00191            0 
  476000       475998     50.01995   0.98244079     16131013 0.0016514788    162.43248    907.78323   -10.861468   0.28125802    173.01269            0 
  476500       476498    50.007663    0.9711488     16159014  0.001648617    162.78039    907.94805   -10.467987   0.27812545    172.97025            0 
  477000       476998    49.962634   0.96918865     16184922 0.0016459781    163.22824    907.72492   -9.8876811   0.27696409    172.83895            0 
  477500       477498     50.00945    0.9447905     16229597 0.0016414472    163.02484    908.21913   -10.173788   0.27807328    172.92055            0 
  478000       477998    49.975689   0.95878713     16242833 0.0016401096    163.99218    908.68339   -9.3817023   0.27573195    173.09815            0 
  478500       478498    49.942626   0.98371254     16204204 0.0016440195    162.57678    906.77532    -10.73527   0.28746255    173.02459            0 
  479000       478998    49.946839   0.95234869     16184540 0.0016460169    164.14195    908.40327   -9.1025099   0.28924266    172.95522            0 
  479500       479498    50.027104   0.95826859     16151868 0.0016493464    163.95736    909.41471   -9.2370468   0.28415478    172.91025            0 
  480000       479998    49.983099   0.96326262     16145045 0.0016500434    163.69333    908.49496   -9.5395512   0.28218672     172.9507            0 
  480500       480498    49.987564   0.95411496     16130379 0.0016515437    162.61714    907.48531   -10.651851    0.2796089    172.98939            0 
  481000       480998     49.96793   0.98378271     16101958 0.0016544588    162.42019    906.99579   -10.862459   0.27052263    173.01213            0 
  481500       481498    49.995616   0.98148311     16105652 0.0016540793    162.87023    907.85837   -10.358561   0.28236381    172.94642            0 
  482000       481998     50.00971   0.96990042     16125711 0.0016520218    163.30129    908.49945   -10.052986   0.28169989    173.07258            0 
  482500       482498    49.986269   0.99216213     16101549 0.0016545008     162.0333    906.88216   -11.241891   0.27634619    172.99884            0 
  483000       482998    50.014195   0.98475867     16071602 0.0016575838    162.73082    907.99582   -10.482251   0.27428677    172.93879            0 
  483500       483498    50.037536   0.98374549     16037958 0.0016610609    160.19189     905.8047    -12.89965   0.25550388    172.83604            0 
  484000       483998    49.999942   0.98162792     16044207  0.001660414    161.98727    907.03989   -11.205982   0.26222489    172.93103            0 
  484500       484498    50.021527    1.0130584     16012274 0.0016637253    161.79781    907.17206   -11.570782   0.26666171    173.10193            0 
  485000       484998     49.98765    1.0266863     15993844 0.0016656425    161.47628    906.34572   -11.864336   0.27528334    173.06533            0 
  485500       485498    50.012341    1.0233379     16009907 0.0016639713    162.99916    908.23653   -10.337635   0.28033582    173.05646            0 
  486000       485998    50.004047    1.0394771     15987445 0.0016663091    163.72221    908.83599   -9.4581686   0.27448872    172.90589            0 
  486500       486498    49.994232    1.0344631     15975266 0.0016675795    162.19209    907.15962   -10.850917   0.25671042     172.7863            0 
  487000       486998    50.015373    1.0376769     16001327 0.0016648635    165.10238    910.38493   -8.2155723   0.27237166    173.04558            0 
  487500       487498    49.958403    1.0583275     16032486 0.0016616279    165.00574    909.43937   -8.3857765   0.26484336    173.12667            0 
  488000       487998    49.983984     1.069591     16062826 0.0016584894    161.87587    906.69069   -11.458531   0.27804363    173.05635            0 
  488500       488498    49.967234    1.0245023     16099372 0.0016547246    164.44192    909.00715   -8.7382265   0.26744187    172.91271            0 
  489000       488998    50.011804    1.0312181     16095230 0.0016551504    165.78878    911.01815   -7.3752452   0.26517981    172.89885            0 
  489500       489498    49.954939    1.0519401     16071102 0.0016576353    165.86457    910.24659   -7.4804148   0.27199503    173.07299            0 
  490000       489998    50.000628    1.0592099     16031029 0.0016617789    163.87046     908.9333   -9.5588369   0.27636939    173.15293            0 
  490500       490498    49.990905    1.0386698     16017031 0.0016632312    164.72971    909.64766   -8.6017658   0.27519724    173.05628            0 
  491000       490998     50.02613    1.0346831     15992065 0.0016658277    163.14903    908.59186   -9.9687606   0.27414718    172.84364            0 
  491500       491498    50.023439    1.0384362     16003192 0.0016646696    162.89674    908.29948    -10.33245   0.27982533    172.94937            0 
  492000       491998    50.044199    1.0233328     16014377 0.0016635069    162.01198    907.72406   -11.367347   0.26675023    173.11258            0 
  492500       492498    50.014743    1.0262572     16020636  0.001662857    162.76248    908.03563   -10.585558   0.27797024    173.07007            0 
  493000       492998    49.960007    1.0223377     16025826 0.0016623184    163.33044    907.78797    -9.871719   0.27121809    172.93094            0 
  493500       493498    49.969247     1.016229     16030931 0.0016617891    164.01282    908.60804   -9.1181666   0.27831672    172.85267            0 
  494000       493998    49.976906    0.9824826     16035677 0.0016612973    163.63817    908.34752   -9.6848281   0.27822934    173.04477            0 
  494500       494498    50.018328    1.0027355     16026756  0.001662222     161.3338    906.66037   -12.172069   0.26446489     173.2414            0 
  495000       494998    49.959619   0.99572884     16040701  0.001660777    163.66936    908.12111   -9.7288097    0.2968717     173.1013            0 
  495500       495498    49.994792   0.96999365     16029082 0.0016619808    161.18889    906.16476   -11.948113   0.28708896    172.84991            0 
  496000       495998    49.967323    0.9717025     16037635 0.0016610944    162.78733    907.35388   -10.490159   0.27758029    172.99991            0 
  496500       496498    50.046501   0.98015428     16029861    0.0016619     161.3534    907.09979   -12.032936   0.29407618    173.09226            0 
  497000       496998    50.015366   0.93837461     16060304 0.0016587498    160.48295    905.76539   -12.817337     0.279897    173.02039            0 
  497500       497498    49.941311   0.95472327     16085885 0.0016561119    164.12434    908.30329   -9.1913844   0.28120716    173.03451            0 
  498000       497998    50.024678   0.94954282     16059882 0.0016587933    164.15704    909.57824   -9.0939649   0.29770187     172.9533            0 
  498500       498498    49.981257   0.96158609     16026301 0.0016622692    162.35567    907.12985   -10.954669   0.27913905     173.0312            0 
  499000       498998    49.938873   0.96763663     16001082 0.0016648891    164.27121    908.41383   -9.1265681   0.29511956    173.10266            0 
  499500       499498    49.957438   0.95638621     15971837 0.0016679375    165.79452    910.21376   -7.5555212   0.29398743    173.05605            0 
  500000       499998    50.030012   0.96363711     15927382 0.0016725929    163.23671    908.73739    -10.13447   0.28131433    173.08987            0 
  500500       500498    49.960149   0.97950082     15929727 0.0016723467     162.4986    906.95824   -10.715749   0.30084171     172.9135            0 
  501000       500998    50.011741   0.95278375     15935324 0.0016717593     161.1622    906.39062    -12.20884   0.28304267    173.08799            0 
  501500       501498    49.930755    1.0021837     15989823 0.0016660613    162.48595     906.5076   -11.090579   0.29338259    173.28315            0 
  502000       501998      50.0013   0.97778221     16044039 0.0016604314    163.20096     908.2738   -10.282412   0.29156941     173.1918            0 
  502500       502498     50.02048    0.9732054     16038311 0.0016610244    161.02819    906.38682   -12.089556   0.26653116    172.85121            0 
  503000       502998    50.023984   0.95961267     16042953 0.0016605438    162.57386    907.98472   -10.547076   0.28410633    172.83683            0 
  503500       503498     49.98382   0.97561278     16070384 0.0016577094    164.75433    909.56671   -8.6536931   0.27678405    173.13124            0 
  504000       503998    50.010188    1.0099992     16069934 0.0016577558    163.72778    908.93307    -9.720519   0.27199073    173.17631            0 
  504500       504498    50.006122   0.99375872     16094845 0.0016551899    164.38419    909.52888   -9.0717521   0.28365237    173.17229            0 
  505000       504998    49.975711    1.0151939     16116766 0.0016529387    164.09331    908.78485   -9.2127738   0.28107861      173.025            0 
  505500       505498    50.022935    1.0206485     16117228 0.0016528913    162.55418     907.9494    -10.82507    0.2644999    173.11475            0 
  506000       505998     50.00516   0.99136668     16159434 0.0016485742     161.7939    906.92426   -11.480623   0.27435098    173.00017            0 
  506500       506498    50.028054   0.99913314     16182017 0.0016462735    164.16792    909.63944   -9.1191778   0.27399521    173.01311            0 
  507000       506998    49.996413    1.0273322     16134174 0.0016511552    162.79743    907.79745   -10.485371   0.27263498    173.01017            0 
  507500       507498    49.981013     1.006038     16100258 0.0016546335    162.54594    907.31648   -10.683402   0.26429234    172.96505            0 
  508000       507998    49.976098    1.0276013     16097425 0.0016549246    163.75126    908.44857   -9.6445251   0.26881449    173.12697            0 
  508500       508498    49.962565    1.0772033     16101515 0.0016545043    163.02309    907.51874    -10.46952   0.28140936     173.2112            0 
  509000       508998    50.001063    1.0401741     16139880 0.0016505715    165.13029    910.19959   -8.2718818   0.26202916    173.14014            0 
  509500       509498    50.016018    1.0345847     16152565 0.0016492753    164.24687    909.53902   -9.0022168   0.26302068    172.98607            0 
  510000       509998    49.976462    1.0405816     16153019 0.0016492289    165.42317     910.1259   -7.8610574   0.27688596    173.00734            0 
  510500       510498    50.040759    1.0472967     16114584 0.0016531625    163.53373    909.19455   -9.7652351   0.26691307    173.03206            0 
  511000       510998    50.032163    1.0467619     16095691  0.001655103    163.30021    908.83295   -10.081432   0.26401071    173.11763            0 
  511500       511498    50.010948    1.0242518     16106522   0.00165399    162.38446    907.60108   -10.911701   0.26864445    173.02752            0 
  512000       511998    49.956823    1.0151482     16150379 0.0016494985    164.35839    908.76848   -9.0021238   0.26337259    173.09714            0 
  512500       512498    50.024419    1.0149249     16159226 0.0016485955    163.11182    908.52915   -10.351053   0.25454418    173.20832            0 
  513000       512998    49.977401    1.0649888     16165434 0.0016479623    161.37521    906.09193   -12.056363   0.27029953    173.16127            0 
  513500       513498    50.014567    1.0137729     16218165 0.0016426042    164.16935    909.43989   -9.1132496   0.27086447    173.01174            0 
  514000       513998     50.01311    1.0232421     16210675 0.0016433632    163.21153    908.46035    -9.999286   0.27315189    172.93767            0 
  514500       514498    49.996826    1.0112815     16193179 0.0016451388    162.72637    907.73254   -10.595545   0.27146347    173.05045            0 
  515000       514998    49.924415    1.0355396     16153974 0.0016491314     162.8845    906.81168   -10.649145   0.27678387    173.25687            0 
  515500       515498    50.044152   0.97982823     16126025 0.0016519897    162.03789    907.74928    -11.16069   0.26113902    172.93744            0 
  516000       515998    50.042778   0.97234211     16114013 0.0016532211    162.51987    908.21077   -10.767821   0.26920787    173.01848            0 
  516500       516498    50.002697   0.96170004     16117321 0.0016528818      162.899    907.99266   -10.350545   0.28006746    172.96948            0 
  517000       516998    50.035454     1.003678     16118755 0.0016527347    162.19909    907.78086   -11.155147   0.27091674    173.08332            0 
  517500       517498    49.966969   0.98631109     16165329  0.001647973    162.19315    906.75443   -11.336751   0.29114866    173.23876            0 
  518000       517998    50.063365   0.98735306     16168980 0.0016476008    159.81606    905.81373   -13.541205   0.27686255     173.0804            0 
  518500       518498     50.01048   0.94509944     16204082 0.0016440317    160.74731    905.95694   -12.613822   0.27686102    173.08427            0 
  519000       518998    50.002171    0.9512358     16209742 0.0016434577    158.60662    903.69244   -14.692495   0.29250127    173.00662            0 
  519500       519498    50.007556    0.9508111     16222326 0.0016421829     161.7732    906.93927   -11.675668   0.27835161    173.17052            0 
  520000       519998    50.016243   0.94928922     16202797 0.0016441621    163.63309    908.92861    -9.948333     0.292279    173.28914            0 
  520500       520498    49.989592   0.95487118     16171297 0.0016473648    165.91002     910.8084   -7.4121013   0.28905515    173.03307            0 
  521000       520998      50.0143   0.95216797     16159545 0.0016485628     165.6851    910.95165   -7.6689886   0.27723079    173.07686            0 
  521500       521498    50.008226   0.93787086     16166645 0.0016478389    165.17247    910.34852   -8.2100475   0.29887492    173.08364            0 
  522000       521998    50.069048   0.94355069     16150306 0.0016495059    163.48868    909.57105   -9.9029271   0.27140842     173.1202            0 
  522500       522498    50.007802   0.96297811     16177927 0.0016466897    164.43232    909.60205   -8.9642475   0.28481319    173.11175            0 
  523000       522998    50.050765   0.93722998     16225967 0.0016418144    162.67841    908.48833   -10.768188   0.29382506    173.15277            0 
  523500       523498    49.973991   0.98156661     16268006 0.0016375717    164.97555    909.64145   -8.4968363   0.27099981    173.20138            0 
  524000       523998    50.064724    0.9301352     16284422 0.0016359209    162.64484    908.66277    -10.69278   0.29132704     173.0463            0 
  524500       524498    49.995944   0.97418089     16294531  0.001634906    162.95735    907.95038   -10.441938   0.28065356    173.11863            0 
  525000       524998    50.034328   0.95352928     16281078 0.0016362569    163.86431    909.42931   -9.4778069   0.26611013      173.076            0 
  525500       525498    50.003725     0.988321     16252897  0.001639094    163.89763     909.0066   -9.5911634   0.28389418     173.2049            0 
  526000       525998    49.992332    0.9997091     16277243 0.0016366424    163.71302    908.65222   -9.8272551   0.27680566    173.26347            0 
  526500       526498    50.018212   0.98571391     16305046 0.0016338516    164.84875     910.1736   -8.5310754   0.26507501    173.11475            0 
  527000       526998    49.977359    1.0381119     16305817 0.0016337743     165.1848     909.9009   -8.1288257   0.28411066    173.02951            0 
  527500       527498     49.97433    1.0228025     16322675  0.001632087    162.32309    906.99406   -10.921571   0.26782919    172.97684            0 
  528000       527998    50.020547    1.0048732     16361896 0.0016281748     162.7448    908.10444   -10.626459   0.27111874    173.10014            0 
  528500       528498    50.021884   0.99968715     16380294 0.0016263461    164.00737    909.38694   -9.3975619   0.26851216    173.13642            0 
  529000       528998    50.017477    1.0396037     16353652 0.0016289956    162.12096    907.43487   -11.448756   0.26365408    173.30606            0 
  529500       529498    49.965311    1.0281903     16355490 0.0016288124    163.83944      908.376   -9.7610905   0.27524886    173.32528            0 
  530000       529998    49.941075    1.0624738     16320921 0.0016322624    163.08042    907.25585   -10.364358   0.27087604    173.17391            0 
  530500       530498    50.008758    1.0187701     16311974 0.0016331577    163.18821    908.37219    -10.08176   0.26572044    173.00425            0 
  531000       530998     49.79038    1.1391597     16287664 0.0016355952    166.87673    908.80665   -6.6410508   0.35859135    173.15919            0 
  531500       531498    49.967695    1.0228275     16288430 0.0016355183    165.30202     909.8741   -8.0770439   0.26837431    173.11068            0 
  532000       531998    50.088141    1.0348991     16239297 0.0016404667    160.82319    907.19006   -12.719149   0.26410168    173.27823            0 
  532500       532498    49.921963    1.0461815     16257148 0.0016386654    163.93439    907.82503   -9.6035954    0.2820394    173.25595            0 
  533000       532998    49.981361    1.0612427     16238586 0.0016405385    163.14221    907.91795   -10.336886    0.2802884    173.19881            0 
  533500       533498    50.108014    1.0294326     16223852 0.0016420284    160.14444    906.80743   -13.171546   0.27027359    173.04571            0 
  534000       533998    49.998665   0.98916841     16262567 0.0016381193    161.27497    906.30855   -12.077507    0.2731531    173.07932            0 
  534500       534498    50.043477    1.0481185     16227591 0.0016416501    157.58983    903.29116   -15.851292    0.2635755    173.17755            0 
  535000       534998    49.986673    1.0293426     16251100 0.0016392753    160.31852     905.1734   -12.972258    0.2574428    173.03334            0 
  535500       535498    50.064425    0.9802225     16244553  0.001639936    160.94931    906.96278   -12.465583   0.27093243    173.14396            0 
  536000       535998    50.070196   0.99610653     16219836  0.001642435    160.73452      906.834   -12.712629   0.26936125    173.17779            0 
  536500       536498    50.022228   0.98713462     16211171 0.0016433129    161.65526    907.03995   -11.856633   0.27141434    173.24047            0 
  537000       536998    49.993538   0.98807263     16194836 0.0016449704    161.11023     906.0674   -12.335874   0.27997687    173.16612            0 
  537500       537498    49.981111    1.0171243     16193871 0.0016450685    162.22587    906.99788   -11.281638   0.27644005    173.23107            0 
  538000       537998    50.033652   0.99240152     16181767 0.0016462989    161.85027    907.40519   -11.627142   0.26782233    173.20959            0 
  538500       538498    50.037553   0.97867882     16194352 0.0016450196    163.13674     908.7498   -10.269148   0.28906688    173.11683            0 
  539000       538998    50.055376   0.94333322     16226896 0.0016417204    163.15848    909.03711   -10.197191   0.27606321    173.07961            0 
  539500       539498    49.998249   0.95234171     16239311 0.0016404653    162.70279    907.73017   -10.782018   0.28726009    173.19754            0 
  540000       539998    50.005331   0.94908254     16226475 0.0016417629    162.27089     907.4038   -11.236353   0.27733954     173.2299            0 
  540500       540498    50.021706   0.94557536     16187066   0.00164576    161.50523    906.88215   -12.047179    0.2709369    173.28148            0 
  541000       540998    49.923547   0.97497303     16164011 0.0016481074    161.84342    905.75766   -11.583496   0.30125415    173.12566            0 
  541500       541498    50.003738   0.95157277     16178249  0.001646657     161.2771    906.38627   -12.148517   0.28322692    173.14239            0 
  542000       541998    49.937921   0.97968766     16190560 0.0016454049    161.14802    905.27644   -12.459225   0.28244336     173.3248            0 
  542500       542498    49.972913   0.93715733     16218001 0.0016426208    163.09446     907.7443   -10.350249   0.28673659    173.15797            0 
  543000       542998    49.924108   0.96935472     16204392 0.0016440004    161.77239      905.695   -11.661224   0.28866673    173.14495            0 
  543500       543498    49.942917    0.9532763     16211261 0.0016433038    160.89325    905.09613    -12.56192   0.28848804    173.16668            0 
  544000       543998    49.996817   0.94750264     16188481 0.0016456162     160.0892    905.09524   -13.377688   0.28591189    173.18098            0 
  544500       544498    49.985034    0.9663775     16167980 0.0016477028    161.12065    905.95112   -12.282322   0.28798393    173.11499            0 
  545000       544998    49.989544   0.95292471     16148269  0.001649714    160.98647    905.88414   -12.434516   0.28978453     173.1312            0 
  545500       545498    49.956708   0.98008449     16133894 0.0016511839     161.5001    905.90847   -12.087296    0.2750321    173.31236            0 
  546000       545998    49.992131   0.94293493     16131117 0.0016514682    160.76771    905.70393   -12.776339   0.29259482    173.25146            0 
  546500       546498    49.901649    1.0236728     16122296 0.0016523717     161.5812    905.16915   -12.032091   0.29151192    173.32178            0 
  547000       546998    49.964073   0.99975816     16107706 0.0016538684    159.82775    904.34588    -13.58773   0.27347458    173.14201            0 
  547500       547498    49.961582    0.9800695     16093418 0.0016553368    160.44506    904.92607   -13.001927   0.29449265     173.1525            0 
  548000       547998    49.994994   0.99133784     16024851 0.0016624195    159.65709    904.63597   -13.754256   0.27250797    173.13884            0 
  548500       548498    49.959806    0.9973792     15984597  0.001666606    159.04333    903.49787   -14.428902   0.28478405    173.18744            0 
  549000       548998    49.967889   0.99024221     16008751 0.0016640914    159.77074    904.34572   -13.812975   0.28348823    173.30023            0 
  549500       549498    50.027173     1.031517     16002513 0.0016647401    160.24479    905.70317   -13.277413   0.28201228    173.24019            0 
  550000       549998    50.052315     1.017093     16044482 0.0016603855    161.07333    906.90636   -12.441443   0.27599533    173.23878            0 
  550500       550498    49.977858    1.0493557     16079689 0.0016567501    163.17003    907.89356   -10.421397   0.27075319    173.32067            0 
  551000       550998    50.022798    1.0219872     16084564  0.001656248    163.82097    909.21416   -9.6467008    0.2736738      173.194            0 
  551500       551498    50.026636    1.0329635     16080919 0.0016566233    162.89545    908.34583   -10.621772   0.27168754    173.24554            0 
  552000       551998    49.972827    1.0429977     16094836 0.0016551909    164.02319    908.67176   -9.3300802   0.26361866    173.08966            0 
  552500       552498     50.00582    1.0347368     16105446 0.0016541005    164.37118    909.51138   -9.1862152    0.2736175    173.28378            0 
  553000       552998     49.99647    1.0803391     16092087 0.0016554737    163.24824    908.24912   -10.371456   0.28285111    173.33685            0 
  553500       553498    50.008427    1.0465989     16099641 0.0016546969    161.44278    906.62182   -12.166694   0.27237258     173.3371            0 
  554000       553998    49.991132    1.1036836     16097357 0.0016549317    159.62833    904.54966    -13.93845   0.27781686    173.28896            0 
  554500       554498    50.019477    1.0596643     16154744 0.0016490528    161.55047    906.89417   -11.979141    0.2690955    173.26052            0 
  555000       554998    50.034967    1.0560464     16211517 0.0016432778    162.51677     908.0913   -10.998888   0.27031458    173.24535            0 
  555500       555498    50.031593    1.0758598     16261908 0.0016381857    161.08052    906.60475   -12.461201    0.2643041    173.27741            0 
  556000       555998    49.999707    1.0421699     16313246 0.0016330303    162.52014    907.56924    -10.94953    0.2722914    173.19738            0 
  556500       556498    50.002822    1.0349867     16289217 0.0016354393    162.75536    907.85088   -10.759547   0.28005224    173.23486            0 
  557000       556998     50.03129    1.0414312     16212921 0.0016431355    160.47424    905.99396   -13.158629   0.27976802     173.3531            0 
  557500       557498    50.007273    1.0283804     16164396 0.0016480681    160.23763    905.39947   -13.318428   0.28967197    173.26638            0 
  558000       557998    49.994437    1.0083644     16150054 0.0016495317    161.52341    906.49399   -12.009503   0.27159368    173.26132            0 
  558500       558498    50.005046   0.98312201     16141921 0.0016503628    159.98318    905.11185   -13.599502   0.27156539    173.31112            0 
  559000       558998    49.983556   0.98505429     16152055 0.0016493273    161.50761    906.31605   -11.988606    0.2934465    173.20277            0 
  559500       559498    50.006833   0.93986325     16194583 0.0016449961    162.13374    907.28904    -11.41549   0.26428802    173.28494            0 
  560000       559998    49.951839   0.98058898     16255157 0.0016388661    165.01601    909.35184   -8.5487401   0.29396855    173.27078            0 
  560500       560498     49.99847   0.98122468     16291239 0.0016352363    163.43236    908.46303   -10.091357     0.293301    173.23041            0 
  561000       560998    50.035702   0.94219242     16334362 0.0016309193    162.34717    907.93264   -11.121692   0.28886659       173.18            0 
  561500       561498    50.004149   0.92151558     16373154 0.0016270553    162.89884    908.01413   -10.718839   0.30381782    173.31386            0 
  562000       561998    50.042946   0.93765765     16372867 0.0016270837    159.91665    905.61006   -13.792406   0.27779441    173.43126            0 
  562500       562498    50.038786   0.92832181     16414668 0.0016229402    161.83604    907.46746   -11.806655   0.29007654    173.35262            0 
  563000       562998    50.020952   0.93146249     16426673 0.0016217542    163.08988    908.45556   -10.394921   0.30024284    173.18456            0 
  563500       563498    49.993128   0.93934722     16377178 0.0016266554    161.68172    906.63279   -11.894885   0.28075693    173.29584            0 
  564000       563998    50.023649   0.93008209     16308489 0.0016335067    161.92615    907.33201   -11.583608   0.29605699     173.2137            0 
  564500       564498    49.937651   0.99600315     16240735 0.0016403214    162.33873    906.46314   -11.325544   0.29981714    173.36446            0 
  565000       564998    50.008009   0.93616088     16261232 0.0016382538    163.20163    908.37445    -10.41561   0.29555811    173.32168            0 
  565500       565498    49.958657   0.94014186     16295771 0.0016347815     165.0078    909.44521   -8.6746501   0.30048695    173.38196            0 
  566000       565998    49.978735   0.94834278     16310676 0.0016332877    164.69146    909.42806    -8.978796   0.28243073    173.38782            0 
  566500       566498    50.007933   0.95986157     16303192 0.0016340374    165.24543    910.41711   -8.4404673   0.30077256    173.38513            0 
  567000       566998     49.99704   0.97389244     16255706 0.0016388107    163.66818    908.67755   -9.9444335   0.27401634     173.3386            0 
  567500       567498    50.021717   0.95488233     16230720 0.0016413336    163.23423     908.6113   -10.302502   0.27294973    173.26378            0 
  568000       567998    50.022409   0.98830675     16198774 0.0016445705    163.04826    908.43565   -10.539161   0.30518153    173.28224            0 
  568500       568498    49.997097    1.0034475     16162384 0.0016482733    163.69445    908.70468   -10.039243   0.28248562    173.45121            0 
  569000       568998    50.009643    1.0212188     16113781 0.0016532448    163.79067    908.98783   -9.7705748   0.30520545    173.25604            0 
  569500       569498    49.985821    1.0196253     16119595 0.0016526486    163.66836    908.51056   -9.9123368   0.28528723    173.29541            0 
  570000       569998    50.007735     1.019975     16124615 0.0016521341    163.02889    908.19762   -10.654349   0.27036372    173.41287            0 
  570500       570498    50.025107    1.0498184     16106256 0.0016540172     161.1598     906.5874   -12.457429   0.27730989    173.33992            0 
  571000       570998    49.993346    1.0386094     16139313 0.0016506295    162.34726    907.30158   -11.273377    0.2765608    173.34407            0 
  571500       571498    49.958977    1.0866533     16165868  0.001647918     162.6601    907.10228   -10.769371   0.29544547    173.13403            0 
  572000       571998    49.980233    1.0579803     16197402 0.0016447098    163.04315    907.80207   -10.688936   0.29172826    173.44036            0 
  572500       572498      50.0186    1.0417623     16180009 0.0016464778    162.98981    908.32044   -10.689058   0.28722765    173.39164            0 
  573000       572998    49.977267    1.0761073     16133070 0.0016512682    161.09678    905.81151   -12.664598   0.28217747     173.4792            0 
  573500       573498    49.891754    1.1005916     16103284 0.0016543225    159.87074    903.31123   -13.820518   0.28193218    173.40933            0 
  574000       573998    49.989364    1.0146862     16121551 0.0016524481    160.79754    905.69253   -12.752548   0.26961206    173.28048            0 
  574500       574498    49.966285    1.0588621     16108342 0.0016538031    161.16768    905.71877   -12.502298   0.27653543    173.39345            0 
  575000       574998    50.023597    1.0166446     16147057 0.0016498379    162.48214    907.88723   -11.132144   0.26525097    173.34903            0 
  575500       575498    49.980755    1.0603282     16162172 0.0016482949    163.99211    908.75881   -9.7124253   0.29834279    173.40619            0 
  576000       575998    50.001852    1.0221118     16194975 0.0016449563    162.94375    908.02483   -10.851714   0.28138638    173.51408            0 
  576500       576498    49.977004    1.0344926     16219437 0.0016424754    162.15668    906.86749   -11.591063   0.26337278    173.48437            0 
  577000       576998    50.034011    1.0079404     16250353 0.0016393506    160.45847    906.01875   -13.170313   0.27776293    173.35102            0 
  577500       577498    50.016018   0.99757465     16299341 0.0016344235    161.84711    907.13926   -11.706376   0.26226409    173.29122            0 
  578000       577998    50.017658   0.99407453     16318071 0.0016325475    160.99384    906.31043   -12.705024   0.27883915    173.42002            0 
  578500       578498    50.007008   0.97000957     16358656 0.0016284972    162.81574    907.97363   -10.871583   0.28766825    173.39966            0 
  579000       578998    50.018641   0.98220745     16349529 0.0016294063    162.24347    907.57471   -11.444644   0.27337371    173.41474            0 
  579500       579498    49.988622   0.98248977     16310998 0.0016332554    161.87663    906.76056   -11.809618   0.29176283    173.39449            0 
  580000       579998    50.049273    1.0048769     16279685 0.0016363969    162.15901     907.9467   -11.427856    0.2889946    173.29787            0 
  580500       580498    50.010272   0.97357217     16299913 0.0016343662    161.79023    906.99676   -11.858127   0.28564137    173.36271            0 
  581000       580998    49.983434    1.0092986     16284321  0.001635931    161.12005    905.92667   -12.693252    0.2913961    173.52191            0 
  581500       581498    49.956311   0.96940944     16302325 0.0016341243    162.20741    906.60988   -11.457003   0.27528512    173.38913            0 
  582000       581998    50.001962   0.96135889     16282603 0.0016361037     162.3561    907.43881   -11.218133   0.29688742    173.27734            0 
  582500       582498    49.988394   0.98525125     16242616 0.0016401315    161.42664    906.30717   -12.286609   0.29577876    173.41747            0 
  583000       582998    50.000485   0.97658241     16234367 0.0016409649    162.56271    907.62342   -11.379854   0.28902509    173.65354            0 
  583500       583498    50.017536   0.99705738     16199748 0.0016444716     160.6156    905.93038   -13.068508    0.3065402    173.37757            0 
  584000       583998    50.005552   0.95019967     16198307 0.0016446179    161.30682    906.44301   -12.206534   0.27454481    173.23881            0 
  584500       584498      49.9729   0.94904266     16178112 0.0016466709    161.53035       906.18   -12.160561   0.28130769    173.40961            0 
  585000       584998    49.974592   0.97760977     16154321  0.001649096    161.05937    905.73424   -12.689715   0.29736821    173.45172            0 
  585500       585498    49.978342   0.97677862     16143596 0.0016501915    163.34673    908.07747   -10.314085   0.28781973    173.37299            0 
  586000       585998    49.999437   0.94990386     16139784 0.0016505814    164.06823     909.1133   -9.7231176   0.29330509    173.49804            0 
  586500       586498    50.075028   0.94350315     16145379 0.0016500094    162.29449    908.46597   -11.327138   0.27358235    173.34805            0 
  587000       586998    50.002038   0.99387391     16168696 0.0016476298    162.07421    907.15805   -11.652637   0.28014593     173.4467            0 
  587500       587498    49.993833    0.9837445     16231948 0.0016412095    164.36302     909.3246   -9.4163522   0.30487865    173.47449            0 
  588000       587998    50.030419   0.96991984     16266259 0.0016377476    164.96397    910.47072   -8.7140465    0.2810021    173.39702            0 
  588500       588498    50.009625   0.95484167     16270559 0.0016373148    165.24865    910.44554   -8.3143789   0.29094827    173.27208            0 
  589000       588998    50.058992   0.97598168     16239502  0.001640446    164.05294    909.98545    -9.637841   0.29286776    173.39791            0 
  589500       589498    49.993185   0.96976669     16244354  0.001639956    164.28856    909.24047   -9.5882189   0.26678919    173.60999            0 
  590000       589998    50.032511   0.98820046     16225238 0.0016418882    162.97565    908.51357    -10.82389   0.28966042    173.50988            0 
  590500       590498    49.988824   0.97831452     16235927 0.0016408072     164.9719    909.85884   -8.6602775   0.28950818    173.34267            0 
  591000       590998    50.034755    1.0108041     16218659 0.0016425541    164.80376    910.37512   -8.7587095   0.28266834     173.2798            0 
  591500       591498    50.005598    1.0156593     16197342 0.0016447159    163.35694    908.49383   -10.290857    0.2895564    173.35824            0 
  592000       591998    50.009389   0.99526011     16202730  0.001644169    164.13205    909.32543   -9.7388539   0.26193321    173.60897            0 
  592500       592498    49.989276    1.0356349     16210123 0.0016434191    163.10202    907.99569   -10.694301   0.28677448    173.50955            0 
  593000       592998    50.009043   0.99064572     16248817 0.0016395055    162.74381    907.93203   -10.968927   0.27751082    173.43523            0 
  593500       593498    50.039919     1.009798     16242532 0.0016401399    162.40793    908.05624   -11.255854   0.25922624    173.40456            0 
  594000       593998    50.025525    1.0266592     16245303 0.0016398602    163.33009    908.76391   -10.347788   0.28414789    173.39373            0 
  594500       594498    49.977262    1.0212037     16254039 0.0016389788    163.99198    908.70663   -9.6576094    0.2742436    173.37535            0 
  595000       594998    50.003923    1.0370122     16228200 0.0016415885    165.16734    910.27927   -8.5590756   0.29387982    173.43254            0 
  595500       595498    50.038315    1.0576272     16195664 0.0016448863    163.36522    908.98963   -10.461928   0.28165939    173.54549            0 
  596000       595998    49.967889    1.0125741     16196427 0.0016448088    163.39716    907.97215   -10.266252   0.27155712    173.39185            0 
  596500       596498    50.010185     1.016147     16182340 0.0016462407    163.40103    908.60627   -10.231837   0.28511769    173.34774            0 
  597000       596998    50.013099    1.0544761     16151491  0.001649385    163.91143     909.1601   -9.9465604   0.24922286    173.60877            0 
  597500       597498    49.986697    1.0785042     16127983 0.0016517891    164.12162    908.97687   -9.5886876   0.29145792    173.41885            0 
  598000       597998    49.999898    1.0365322     16149249  0.001649614    165.26166    910.31362   -8.4196923   0.30935283      173.372            0 
  598500       598498    49.977478    1.0519068     16153848 0.0016491443    163.22412    907.94198   -10.464325   0.27932862    173.40912            0 
  599000       598998      50.0114    1.0162045     16160508 0.0016484646    161.54851    906.77185   -12.086605   0.29546764    173.33965            0 
  599500       599498    49.960104    1.0001286     16190510 0.0016454099    162.83587    907.29485   -10.953969   0.26587539    173.52396            0 
  600000       599998    50.032831   0.98331825     16219624 0.0016424565    163.15886    908.70154   -10.517407   0.27413498    173.40213            0 
  600500       600498    50.028029    1.0241961     16217881  0.001642633    160.79902    906.27016   -12.972988   0.28984029    173.48217            0 
  601000       600998    49.890023    1.0287912     16246632 0.0016397261    162.44179    905.85648   -11.483936   0.29455581    173.63117            0 
  601500       601498    49.967934   0.98565671     16241709  0.001640223    162.11404     906.6897   -11.554108   0.30040057    173.36775            0 
  602000       601998    50.022395   0.96061871     16241707 0.0016402232    161.90661    907.29379   -11.638993   0.29234267    173.25326            0 
  602500       602498    50.019906   0.96648849     16234370 0.0016409646     161.2986     906.6487   -12.448169   0.28048584    173.46629            0 
  603000       602998    49.989926   0.95727101     16234213 0.0016409804      162.964    907.86736   -10.921121   0.30674079    173.57838            0 
  603500       603498    50.002553   0.98226174     16179426 0.0016465372    160.32661    905.41813   -13.437852   0.28827948    173.47619            0 
  604000       603998    49.954178   0.98849546     16163077 0.0016482027    161.66946    906.04013   -12.201697    0.2947281    173.57643            0 
  604500       604498    50.048691   0.95336251     16189730 0.0016454893    161.67671    907.45573   -12.041369   0.28570692    173.43237            0 
  605000       604998    49.977074   0.93793964     16192807 0.0016451765    164.18356     908.8954   -9.4149008   0.29139917    173.30706            0 
  605500       605498    50.073187   0.96703914     16135010 0.0016510697    159.83803    905.98207   -13.954015   0.32130205    173.47074            0 
  606000       605998    49.987657   0.92002139     16126410 0.0016519502    160.09952    904.96906   -13.703862   0.29493391    173.50844            0 
  606500       606498    49.977991     0.972556     16084303 0.0016562748    160.83915    905.56466   -13.020301   0.29309957    173.56635            0 
  607000       606998    49.975512   0.98272785     16064071 0.0016583608     160.5965    905.28508   -13.176666   0.28201343    173.49115            0 
  607500       607498    50.031525   0.95801841     16090590 0.0016556277     161.7672    907.29043   -11.876113   0.27948754    173.36383            0 
  608000       607998    50.022422    1.0144077     16121925 0.0016524098    160.03049    905.41807   -13.627596   0.30910276    173.34898            0 
  608500       608498    49.993681   0.98530594     16185037 0.0016459664    160.05641    905.01572   -13.896503   0.29345425    173.65946            0 
  609000       608998    50.009996   0.98977847     16188583 0.0016456058    159.64541    904.84783   -14.147147   0.29632982    173.49622            0 
  609500       609498      49.9917   0.99574188     16176020 0.0016468839    160.48146    905.41126    -13.19999   0.30665829    173.37479            0 
  610000       609998    50.036215   0.99328855     16158458 0.0016486738    159.90384    905.49695   -13.729766   0.28154007    173.35206            0 
  610500       610498    49.999518   0.95179103     16158056 0.0016487148    160.57564    905.62193   -13.188481   0.29549242    173.46863            0 
  611000       610998    49.896585    1.0316314     16125580 0.0016520352     162.0405    905.55298   -12.038812   0.29763176    173.78168            0 
  611500       611498    50.013766    1.0003183     16095822 0.0016550895    160.36302    905.62162     -13.5025   0.26971055    173.59581            0 
  612000       611998    50.042028    1.0054525     16086428 0.0016560561    160.56858    906.24832    -13.11978   0.29367505    173.39469            0 
  612500       612498    50.037445    1.0202543     16086335 0.0016560656    160.37937    905.99081   -13.304446   0.28594979    173.39786            0 
  613000       612998     49.98736    1.0376163     16076913 0.0016570362    159.05926    903.92439   -14.748301   0.30080544    173.50676            0 
  613500       613498     50.00741   0.99538774     16126471  0.001651944    159.57698    904.74087   -14.069896   0.28467629     173.3622            0 
  614000       613998    50.044365    0.9800173     16170415 0.0016474547    159.25456    904.96911   -14.538162   0.27298883    173.51973            0 
  614500       614498    50.069019   0.99036591     16206428 0.0016437938    158.12546    904.20739    -15.72093   0.28712839    173.55926            0 
  615000       614998    49.971207    1.0346099     16213282 0.0016430989    161.55012    906.17454    -12.36802   0.30835309    173.60978            0 
  615500       615498    50.037558    1.0054558     16182144 0.0016462606     161.4444    907.05752   -12.279159   0.28588932    173.43766            0 
  616000       615998    49.980287    1.0399889     16166231 0.0016478811    161.17781    905.93754   -12.488287   0.28814993    173.37795            0 
  616500       616498    50.005857    1.0178871     16184443 0.0016460267     159.2869    904.42765   -14.429346   0.27933623    173.43691            0 
  617000       616998     49.97498    1.0162495     16175664 0.0016469201    160.05551    904.73616   -13.736138   0.28382268    173.50783            0 
  617500       617498    49.977942    1.0261046     16164110 0.0016480973    162.00201     906.7268   -11.959532   0.28579308    173.67575            0 
  618000       617998    50.014457    1.0031644     16148063 0.0016497351    160.13974    905.40864   -13.636943   0.26993483    173.50675            0 
  618500       618498    49.992635   0.99848401     16154837 0.0016490434    160.61513    905.55886    -13.15363   0.28768582    173.48108            0 
  619000       618998    50.042921    1.0045902     16143203 0.0016502318     160.7698    906.46285   -12.852757   0.26932217    173.35323            0 
  619500       619498    49.954065    1.0516804     16135408 0.0016510289    161.01044    905.37943   -12.676673   0.28999985    173.39711            0 
  620000       619998    49.934081      1.04832     16158974 0.0016486211    161.52398     905.5952   -12.358393   0.29661675    173.58576            0 
  620500       620498    50.013278    1.0061576     16181740 0.0016463017    162.56117    907.81251   -11.239331   0.27931004    173.52119            0 
  621000       620998    49.991076    1.0045671     16168836 0.0016476156    162.87548    907.79597    -10.91472   0.30178551    173.48841            0 
  621500       621498    49.981258    1.0274225     16143063 0.0016502461    161.66399    906.43819   -12.121255   0.27524053    173.51001            0 
  622000       621998     50.01856   0.98342405     16141046 0.0016504523    162.42763    907.75767   -11.439826   0.28295874     173.5845            0 
  622500       622498    50.050016    1.0022831     16108782 0.0016537579    161.09985    906.89861   -12.793408   0.29040796    173.60285            0 
  623000       622998    49.991229    1.0126614     16119039 0.0016527056    163.47897    908.40176   -10.289851    0.2735507    173.49527            0 
  623500       623498    50.020318    1.0293572     16128055 0.0016517817    164.91295    910.26919    -8.928732   0.28370451    173.55798            0 
  624000       623998    50.009812   0.98517464     16152217 0.0016493108     163.7458    908.94548     -10.0662   0.29040829    173.52159            0 
  624500       624498    49.983273       1.0114     16175553 0.0016469313    163.40185    908.20607   -10.323115   0.30065628    173.42431            0 
  625000       624998    49.965919   0.99514599     16206672 0.0016437691    164.01228     908.5579   -9.7350428    0.2868363    173.46048            0 
  625500       625498    49.999329   0.98415452     16222701 0.0016421449    162.81983    907.86331    -11.10758   0.28015052    173.64726            0 
  626000       625998    50.011482   0.97884599     16206792 0.0016437569    161.86378    907.08835   -12.158485   0.28804604    173.73421            0 
  626500       626498    49.986625   0.98428223     16151171 0.0016494176    161.51345    906.36762   -12.271473   0.29823993    173.48668            0 
  627000       626998    49.963064   0.97690443     16132999 0.0016512755    163.97051     908.4736   -9.6638064   0.29535272    173.33896            0 
  627500       627498    49.982503   0.99745159     16108919 0.0016537439     164.4068    909.19955   -9.4793813   0.31814968    173.56804            0 
  628000       627998    50.014734   0.96011639     16136723 0.0016508944     164.4309    909.70392   -9.4273718   0.28256199    173.57571            0 
  628500       628498    49.920274    0.9889611     16177607 0.0016467223    165.60491    909.47038   -8.2206006   0.28611039     173.5394            0 
  629000       628998    50.036226   0.93716246     16198044 0.0016446446    163.68699    909.28028   -10.184396    0.2901026    173.58129            0 
  629500       629498    50.003246   0.93307062     16195568  0.001644896    163.01872    908.12056   -10.827871   0.28878995     173.5578            0 
  630000       629998    50.023208   0.97131991     16165993 0.0016479053    163.72479    909.12409   -10.161376   0.30365448    173.58251            0 
  630500       630498    49.953175   0.97775503     16167109 0.0016477916    165.80749    910.16321   -8.0008603   0.28200002    173.52635            0 
  631000       630998    49.979883   0.95753341     16174583 0.0016470302    164.43277    909.18648    -9.360724   0.28002849    173.51346            0 
  631500       631498    49.982387   0.95085842     16182950 0.0016461786    165.44318    910.23421   -8.4512106   0.29333639    173.60105            0 
  632000       631998    49.946898    1.0186753     16160558 0.0016484596    164.58565    908.84784   -9.3246232   0.28925168    173.62102            0 
  632500       632498     50.06477   0.96853111     16183446 0.0016461281    162.41608     908.4347   -11.387785   0.29890915    173.50496            0 
  633000       632998    50.046453   0.97147096     16201598 0.0016442838    162.28134    908.02701   -11.574153   0.29111466    173.56438            0 
  633500       633498    49.998186    1.0147205     16170351 0.0016474612     161.1988    906.22524   -12.648179    0.2732308    173.57375            0 
  634000       633998    50.051209    0.9590536     16176750 0.0016468095    161.53323    907.34978   -12.314888   0.28089236    173.56723            0 
  634500       634498     50.01774   0.98843881     16163117 0.0016481985    161.44525    906.76306   -12.324836   0.28228684     173.4878            0 
  635000       634998    50.016526   0.97958133     16157301 0.0016487918     160.5054    905.80512   -13.208076   0.28098119    173.43249            0 
  635500       635498    50.069446   0.99475033     16171842 0.0016473093    162.77178    908.86006   -11.158208   0.28870844    173.64128            0 
  636000       635998    49.990429    1.0092819     16174938  0.001646994    161.57303    906.48389    -12.35044   0.28200097    173.64147            0 
  636500       636498    50.003607    1.0024857     16191250 0.0016453347    161.40529     906.5125   -12.485941   0.28529701    173.60593            0 
  637000       636998    49.953432    1.0171433     16180439  0.001646434    163.25729    907.61686   -10.528236   0.27245975    173.51307            0 
  637500       637498    50.004794    1.0443131     16134957 0.0016510751    164.43185    909.55676   -9.3597291    0.2814586    173.51012            0 
  638000       637998    49.976672    1.0309023     16100615 0.0016545968    163.39431    908.10018   -10.464993   0.28868374    173.57062            0 
  638500       638498    50.037611    1.0138889     16091341 0.0016555504    163.76545    909.37937   -10.073217   0.26865216    173.57001            0 
  639000       638998    50.010284    1.0101643     16076593 0.0016570691    164.76385    909.97057   -9.0934437   0.27506974    173.58223            0 
  639500       639498    50.023484    1.0224565     16081535 0.0016565599    164.10459    909.50799   -9.7441651   0.27608471    173.57267            0 
  640000       639998    49.912923    1.1122124     16103317 0.0016543191    164.06439    907.82032   -9.7929161   0.28688924    173.57042            0 
  640500       640498    50.001695    1.0206968     16153074 0.0016492233    163.02614    908.10487   -10.865546    0.2848445    173.60684            0 
  641000       640998    49.999182    1.0280667     16147247 0.0016498184    161.85753    906.89881   -12.017332   0.27356494     173.6013            0 
  641500       641498    49.923868    1.0369553     16150752 0.0016494604    163.40001    907.31904   -10.529206   0.28293891    173.64628            0 
  642000       641998    50.032698    1.0193793     16143665 0.0016501845    161.65797    907.19867   -12.160958    0.2960914    173.52284            0 
  642500       642498    50.004715   0.99958675     16130597 0.0016515213    162.33486    907.45859    -11.39376   0.27097606    173.45765            0 
  643000       642998    50.053511   0.98870223     16108527 0.0016537841     163.5477    909.39854    -10.19892   0.28174758    173.46487            0 
  643500       643498    49.999817    1.0119346     16096524 0.0016550173    161.82332    906.87407   -12.132407   0.28052515     173.6752            0 
  644000       643998    49.992292     1.004736     16106160 0.0016540272    161.88353    906.82214    -11.99556   0.26622981    173.61286            0 
  644500       644498    50.055057   0.98684402     16094450 0.0016552306     160.3032    906.17707   -13.388493   0.28646077    173.40523            0 
  645000       644998    49.943332    1.0271882     16095046 0.0016551693    162.31375    906.52281   -11.531292   0.29790553    173.54714            0 
  645500       645498    49.991089   0.97972031     16139515 0.0016506089    162.85931    907.77999    -10.98455   0.27902119    173.56483            0 
  646000       645998    50.020453   0.97954573     16163449 0.0016481647    163.98165     909.3399   -9.8934746   0.28751069    173.58761            0 
  646500       646498     49.96889    1.0098051     16166124  0.001647892    163.28886    907.87876   -10.762663   0.28140193    173.77012            0 
  647000       646998     50.04056   0.95600254     16180374 0.0016464406    163.39962    909.05748   -10.428524   0.28539373    173.54276            0 
  647500       647498     50.04878   0.98352506     16143803 0.0016501704    161.26791    907.04825   -12.448054   0.28301503    173.43295            0 
  648000       647998    49.987257    0.9715306     16171681 0.0016473257    163.09719    907.96077   -10.743524   0.27408725    173.56662            0 
  648500       648498    49.947817    0.9953182     16180336 0.0016464445    164.64948    908.92536   -9.1630837   0.28046041     173.5321            0 
  649000       648998    49.997961   0.98925892     16171483 0.0016473458    162.13759    907.16067   -11.722314   0.28086627    173.57904            0 
  649500       649498    49.996888     1.001904     16223601 0.0016420538    162.88092    907.88802   -10.982885   0.29068384    173.57312            0 
  650000       649998    50.011661   0.98080654     16303314 0.0016340252    162.38154    907.60877   -11.465599   0.28101804    173.56612            0 
  650500       650498    49.985668   0.98031315     16361476 0.0016282165    162.97345    907.81337   -10.926285   0.28006996    173.61966            0 
  651000       650998    50.006889   0.98619819     16364505 0.0016279152    163.07229    908.22842   -10.709355   0.27980332    173.50184            0 
  651500       651498    49.994442   0.94905479     16366395 0.0016277272    162.82658    907.79722   -10.919872   0.27843224    173.46801            0 
  652000       651998    50.015098   0.95681302     16359204 0.0016284427    160.47203    905.75048   -13.431898   0.27743155    173.62649            0 
  652500       652498    50.002603    1.0008981     16404209 0.0016239751    163.16842    908.26067    -10.73949   0.27713168    173.63077            0 
  653000       652998    50.024442   0.96409243     16480971 0.0016164112    163.55549    908.97318   -10.339015   0.27892323    173.61558            0 
  653500       653498    49.981527   0.98154229     16501403 0.0016144098    164.50486    909.28307   -9.3184497   0.29661373     173.5267            0 
  654000       653998    49.986581   0.98589414     16509286 0.0016136389    165.93909    910.79261   -7.9615628    0.2783483    173.62231            0 
  654500       654498    49.979122   0.97065353     16509182 0.0016136491    166.65985    911.40223   -7.3071512   0.27704876    173.68996            0 
  655000       654998    49.990325   0.98422395     16479374 0.0016165678    165.21797    910.12728   -8.6330616   0.27872159    173.57231            0 
  655500       655498    50.036297     1.002767     16493429 0.0016151902    163.87197    909.46632   -9.9335223     0.273388    173.53211            0 
  656000       655998    50.006144    0.9811331     16518107 0.0016127772    162.31957    907.46459   -11.540285   0.27386605    173.58599            0 
  656500       656498    49.966093   0.98591712     16530929 0.0016115262    162.95319    907.50141    -11.00229   0.28575108    173.66973            0 
  657000       656998    49.990031   0.98116441     16520172 0.0016125756    163.27036    908.17528   -10.709887   0.28510512    173.69514            0 
  657500       657498    49.996481    1.0077063     16488707 0.0016156528      162.973    907.97403   -10.971366   0.27425655    173.67011            0 
  658000       657998    50.034679   0.98903206     16450257 0.0016194292      162.692    908.26223   -11.100332   0.28163151     173.5107            0 
  658500       658498     50.04412    1.0078665     16406056 0.0016237922    162.48852    908.19942    -11.38013   0.26455804    173.60409            0 
  659000       658998    49.990151   0.99204292     16402819 0.0016241127      162.761    907.66771   -11.128144   0.27596291    173.61318            0 
  659500       659498    50.012348    1.0363323     16406703 0.0016237282    163.55403     908.7915   -10.362531   0.27689174    173.63967            0 
  660000       659998    50.006378    1.0616875     16401324 0.0016242607    162.77841    907.92693   -11.163685   0.29288319    173.64922            0 
  660500       660498    50.021146    1.0133941     16417098    0.0016227    163.71238    909.08095   -10.199744   0.28193364    173.63019            0 
  661000       660998    50.055133    1.0247459     16378438 0.0016265303    161.37864    907.25365   -12.563556   0.26523555    173.67696            0 
  661500       661498     49.97965    1.0484808     16370172 0.0016273516    161.78885    906.53909   -12.172596    0.2817489     173.6797            0 
  662000       661998    49.961235    1.0498805     16398002 0.0016245897    160.82099    905.29681   -13.070845   0.28338906    173.60844            0 
  662500       662498    50.011384    1.0171697     16435345 0.0016208985    161.83714    907.06025    -12.01693   0.26670296    173.58736            0 
  663000       662998    49.958782    1.0538661     16464672 0.0016180114    163.69625    908.13553   -10.352603    0.2778908    173.77097            0 
  663500       663498    49.971544    1.0105289     16492536 0.0016152777     164.2453    908.87476   -9.7310523   0.28292139    173.69344            0 
  664000       663998    50.008065    1.0008546     16484593  0.001616056    162.62139    907.79505   -11.269926   0.28391232     173.6074            0 
  664500       664498    49.987696    1.0250195     16484549 0.0016160603    164.56443    909.43457   -9.3329176   0.28259363    173.61476            0 
  665000       664998    50.048543    1.0105227     16447722 0.0016196788    161.68118      907.458   -12.164668   0.27434235    173.57151            0 
  665500       665498    49.982277    1.0087623     16439602 0.0016204788    161.89943    906.68881   -11.991251   0.29536087    173.59532            0 
  666000       665998    50.033595   0.96585784     16433697 0.0016210611    161.17818    906.73225   -12.658274   0.27575206     173.5607            0 
  666500       666498    50.091563   0.96610364     16411110 0.0016232922    160.45048    906.86834   -13.599682   0.27447896    173.77568            0 
  667000       666998     50.00737    1.0028425     16361740 0.0016281903    160.19635    905.35964   -13.730909   0.29313897    173.63412            0 
  667500       667498    50.050518    0.9463633     16295648 0.0016347939    159.63311    905.43935   -14.166027   0.28750232    173.51163            0 
  668000       667998    50.038146   0.97761286     16230351 0.0016413709    158.65297    904.27485   -15.279225   0.28057251    173.65162            0 
  668500       668498    50.055343   0.95212697     16221990 0.0016422169     159.8214    905.69955   -14.054318   0.27175491    173.60397            0 
  669000       668998    49.984125   0.99332177     16239083 0.0016404883    159.98554    904.80245   -14.031374   0.27841301     173.7385            0 
  669500       669498    49.979097   0.99196945     16296866 0.0016346717    160.95734    905.69934   -12.917872   0.27651099     173.5987            0 
  670000       669998    50.025011   0.99325337     16363453 0.0016280198    161.36878    906.79493   -12.501584   0.28745374    173.58291            0 
  670500       670498    49.896034    1.0059801     16426354 0.0016217857    164.77859    908.28286   -9.3852599   0.31656914    173.84728            0 
  671000       670998    49.985108   0.97727384     16460914 0.0016183807    164.33037    909.16193   -9.8369743   0.28435428    173.88299            0 
  671500       671498    49.947312    1.0111983     16447260 0.0016197243    163.89685    908.16521   -10.013513   0.28551969    173.62484            0 
  672000       671998    50.008036   0.97108014     16462733 0.0016182019     164.5923    909.76552   -9.3048716   0.28070834    173.61647            0 
  672500       672498    50.051485    1.0064942     16415552 0.0016228529    161.98026    907.80091   -11.964732   0.28009368    173.66489            0 
  673000       672998    50.030726    1.0013841     16417186 0.0016226914    161.35264    906.86397   -12.678778   0.28163797    173.74978            0 
  673500       673498     49.97965   0.94931403     16423940  0.001622024    162.31357     907.0638   -11.622127   0.29803243    173.63766            0 
  674000       673998    50.019338   0.95960559     16368684 0.0016274996    162.44304    907.78467   -11.476029   0.28428166    173.63479            0 
  674500       674498    49.992594   0.98206676     16284688 0.0016358941    160.58167    905.52479   -13.361504   0.28372966    173.65945            0 
  675000       674998    49.961106   0.99297439     16244938 0.0016398971    161.99504    906.46895   -12.029128   0.28684667    173.73732            0 
  675500       675498    50.020385   0.99437257     16217668 0.0016426545    162.82423    908.18147   -11.126937   0.26628685    173.68488            0 
  676000       675998    50.055507   0.97478594     16212260 0.0016432025    163.84053    909.72111   -9.9717727   0.27716586    173.53513            0 
  676500       676498    50.013623     1.017444     16217572 0.0016426643    161.65049    906.90696   -12.297814   0.28103242    173.66728            0 
  677000       676998    50.001623   0.99312141     16314992 0.0016328555    164.40345     909.4811    -9.609903    0.2860119    173.72734            0 
  677500       677498    49.980412    1.0078461     16367282  0.001627639    162.97934    907.74093   -11.056879   0.28848526    173.74774            0 
  678000       677998    50.017879   0.97215787     16426106 0.0016218102    162.22532    907.54521   -11.667028   0.26235749    173.62999            0 
  678500       678498    49.970311    1.0296636     16453164  0.001619143    163.76939    908.38047    -10.27591   0.29626209    173.74904            0 
  679000       678998    49.991189    1.0077761     16463683 0.0016181086    163.44999    908.37217   -10.476396   0.27359706    173.65279            0 
  679500       679498    49.998642    1.0525651     16443713 0.0016200736    163.97996    909.01319   -9.9541067   0.28357597    173.65049            0 
  680000       679998     49.99573    1.0224253     16445305 0.0016199168     164.6481    909.63794   -9.3384618   0.29560657    173.69095            0 
  680500       680498    50.028043     1.018661     16416052 0.0016228035    161.07707    906.54842   -12.901938    0.2830931    173.69591            0 
  681000       680998    49.976929    1.0114783     16453100 0.0016191493     163.3783    908.08799   -10.689811   0.28086357    173.78725            0 
  681500       681498    49.974165    1.0201538     16455684 0.0016188951    164.81683    909.48534   -9.2716166   0.27834903     173.8101            0 
  682000       681998    50.043791   0.99315087     16424887 0.0016219306    162.31532    908.02132   -11.647992   0.26908084    173.69423            0 
  682500       682498    49.990766    1.0086671     16417698 0.0016226407    163.80106    908.71694   -9.9886821   0.27937517    173.51037            0 
  683000       682998    49.979136    1.0204341     16388780 0.0016255039    163.40124    908.14382   -10.573382   0.28805283    173.68657            0 
  683500       683498      49.9695    1.0415646     16356320 0.0016287298    163.49673    908.09573   -10.677744   0.30333204    173.87115            0 
  684000       683998    50.019616    1.0122196     16339743 0.0016303822    163.35844    908.70421   -10.624033   0.28732281    173.69515            0 
  684500       684498    50.042299    1.0109595     16339485 0.0016304079     162.6348    908.31856   -11.360132   0.26971162    173.72522            0 
  685000       684998    49.994906    1.0521976     16342585 0.0016300986    162.19512    907.17269    -11.77999   0.28051578     173.6946            0 
  685500       685498    50.013825   0.98893143     16360590 0.0016283047    163.10195    908.36143   -10.788635   0.28230584    173.60828            0 
  686000       685998    50.058763    0.9923026     16356805 0.0016286815    163.37586    909.30496   -10.577315    0.2714673    173.68171            0 
  686500       686498    50.006968    0.9973052     16356625 0.0016286994    163.88642    909.04372   -10.144627   0.29244751     173.7386            0 
  687000       686998     50.04111   0.97253384     16355524 0.0016288091    162.50979    908.17585   -11.586406   0.28177815    173.81441            0 
  687500       687498    50.014258   0.98252807     16374666  0.001626905    163.68752    908.95346   -10.279508    0.2770569    173.68997            0 
  688000       687998    49.987665    0.9803332     16393110 0.0016250745    164.28312    909.15279   -9.7255666   0.27343966    173.73524            0 
  688500       688498     50.00765   0.98029536     16368349 0.0016275329    163.87413    909.04159   -10.077357   0.27622993    173.67525            0 
  689000       688998    50.031973   0.99826326     16359094 0.0016284537    164.13999    909.66989   -9.8420054   0.28160737    173.70039            0 
  689500       689498     50.04707    0.9921398     16406498 0.0016237484    162.34638    908.10124   -11.801676   0.27837459    173.86968            0 
  690000       689998    50.033761    1.0233462     16468401  0.001617645    162.77679    908.33334   -11.320445   0.29432857    173.80291            0 
  690500       690498    50.050392   0.95648159     16509088 0.0016136583    162.07417    907.87854   -11.857249   0.28244867    173.64897            0 
  691000       690998    50.030884   0.97174627     16506765 0.0016138854    161.15913     906.6728   -12.696546   0.29067671      173.565            0 
  691500       691498    50.002393   0.97260294     16516897 0.0016128953    162.66801    907.75715   -11.419013   0.27320196    173.81383            0 
  692000       691998    50.022629   0.95140334     16525650  0.001612041    161.85636    907.24703   -12.122763   0.26982867    173.70929            0 
  692500       692498    50.018193   0.96657008     16534181 0.0016112093    162.89516    908.21973   -11.118857   0.28465186    173.72937            0 
  693000       692998    50.014251   0.98346746     16534519 0.0016111763    162.73102    907.99684   -11.261592   0.27107365    173.72154            0 
  693500       693498    50.038021    1.0137492     16537486 0.0016108873    162.83638     908.4564   -11.231498   0.30333747    173.76454            0 
  694000       693998    49.999541   0.99604252     16576168 0.0016071281    163.24273    908.28936   -10.841501   0.29097044    173.79326            0 
  694500       694498    50.043558   0.98113827     16600569 0.0016047658    163.86826    909.57079    -10.07819   0.26654662     173.6799            0 
  695000       694998      49.9576    1.0332769     16605576 0.0016042819     162.6724    907.09407   -11.283847   0.31853663    173.63771            0 
  695500       695498    50.018596    1.0009534     16635486 0.0016013975    160.73577    906.06634   -13.390444   0.27766204    173.84855            0 
  696000       695998    49.945522    1.0202712     16664575 0.0015986022    162.46297    906.70465   -11.777236   0.27585035    173.96435            0 
  696500       696498    50.014565    1.0001372     16680577 0.0015970686    162.18231    907.45281   -11.991764   0.29491991    173.87915            0 
  697000       696998    50.077914   0.97595457     16681422 0.0015969878    162.12859    908.34307   -11.979028   0.28261235      173.825            0 
  697500       697498    50.045156   0.97981764     16661094 0.0015989362    163.00891    908.73526   -10.874065   0.27339761    173.60957            0 
  698000       697998    50.026404    1.0072431     16616634 0.0016032143     164.6838    910.13072   -9.2725289   0.28435054    173.67198            0 
  698500       698498    50.026727    0.9818349     16561352 0.0016085659    162.98469    908.43642   -10.992873   0.27253716    173.70502            0 
  699000       698998    50.022927    1.0136409     16500669 0.0016144816    163.29299    908.68811   -10.787532   0.28203673    173.79849            0 
  699500       699498    50.018348    1.0265838     16446482 0.0016198009    161.84893    907.17581   -12.345874   0.28091398    173.91389            0 
  700000       699998    49.995336   0.99152557     16461901 0.0016182836    163.55957    908.54354   -10.517904   0.27826477    173.79921            0 
  700500       700498    49.984444     1.007084     16452439 0.0016192144    163.04836    907.87004   -10.961615   0.28511478    173.72486            0 
  701000       700998     50.02504    1.0216826     16453979 0.0016190628    160.85933    906.28593   -13.032826   0.27646869    173.61569            0 
  701500       701498    49.999758    1.0469457     16487578 0.0016157634    162.21009    907.25996   -11.839782   0.29495017    173.75492            0 
  702000       701998    49.980898    1.0107252     16512867  0.001613289      163.476    908.24484   -10.601914   0.28524751    173.79267            0 
  702500       702498     49.85041    1.1344627     16454646 0.0016189972    165.24503    908.06945   -8.8930866   0.29224832    173.84587            0 
  703000       702998    49.985931   0.99587008     16465165 0.0016179629    164.68604    909.52987   -9.5167404   0.28643234    173.91635            0 
  703500       703498    49.989797    1.0388022     16470236 0.0016174647    164.04415    908.94559   -10.053213   0.28095164    173.81641            0 
  704000       703998    49.960822     1.025601     16540020 0.0016106405    163.97119    908.44088   -10.085549   0.27697557    173.77977            0 
  704500       704498    49.978174    1.0585925     16591114 0.0016056803    165.47955     910.2078   -8.6418465   0.30681505    173.81458            0 
  705000       704998    49.966596    1.0292406     16603217 0.0016045099    163.79314    908.34885   -10.206683    0.2844928    173.71533            0 
  705500       705498    49.984194    1.0076094     16601651 0.0016046612     163.0425    907.86045   -11.070777   0.28368389    173.82959            0 
  706000       705998    49.990794   0.99494053     16611651 0.0016036952    162.86004    907.77634      -11.309   0.28796469    173.88108            0 
  706500       706498    50.031902   0.99528714     16613626 0.0016035046    162.72612    908.25497      -11.408   0.30092708    173.83319            0 
  707000       706998    49.958066     1.000185     16604318 0.0016044035    162.26949     906.6981   -11.781167   0.28169468    173.76896            0 
  707500       707498    50.016687   0.99730527     16602092 0.0016046186    161.07913    906.38126   -12.890182   0.27488571    173.69443            0 
  708000       707998     49.99619   0.99651601     16597642 0.0016050488    162.90441    907.90111    -11.17569   0.29247069    173.78763            0 
  708500       708498    49.895237    1.0616294     16544362 0.0016102178    163.61525    907.10764    -10.67436   0.29174255    173.99786            0 
  709000       708998    50.017753   0.96272669     16509334 0.0016136342    161.17114    906.48915     -12.8856   0.28783077    173.76891            0 
  709500       709498    50.030133   0.97771709     16425118 0.0016219077    158.55016    904.05265    -15.46837   0.30871451    173.70982            0 
  710000       709998    50.023639   0.96689414     16357696 0.0016285928    158.58006    903.98578   -15.583786   0.27630907    173.88754            0 
  710500       710498     50.00021   0.99162966     16308212 0.0016335344    160.63451    905.69111   -13.479206   0.27375836    173.83996            0 
  711000       710998    49.974193    1.0247183     16294981 0.0016348608     161.5236    906.19251     -12.5116   0.29727272    173.73792            0 
  711500       711498    49.984678   0.96875861     16336335 0.0016307223     160.6593    905.48446   -13.402432   0.27721461    173.78451            0 
  712000       711998    50.011956    0.9777537     16365580 0.0016278082    161.95262    907.18425   -12.147922   0.29600886    173.80453            0 
  712500       712498    50.006318   0.97527992     16387093 0.0016256713    162.46787    907.61549   -11.722406   0.29225685    173.89802            0 
  713000       712998    49.984427   0.97047911     16415783 0.0016228301    163.17381    907.99522   -10.829607    0.2879694    173.71544            0 
  713500       713498    49.948981     1.001447     16438953 0.0016205428     162.0337    906.32693   -11.966305    0.2837733    173.71624            0 
  714000       713998    50.060852   0.96395418     16478482 0.0016166553     162.4351    908.39533    -11.56945   0.28431962    173.72023            0 
  714500       714498     49.97597   0.98171266     16492718 0.0016152599    162.18391    906.87931   -12.087978   0.29263493    173.97925            0 
  715000       714998    50.049404   0.97595053     16487073 0.0016158129     161.9496    907.73924   -12.239305   0.28651831    173.90238            0 
  715500       715498    50.029489   0.96095621     16465490 0.0016179309    161.28584    906.77872   -12.781919   0.28422755    173.78353            0 
  716000       715998    50.049932   0.98130489     16410064 0.0016233957    160.57315    906.37067   -13.397524   0.29800837    173.67267            0 
  716500       716498    49.999625   0.97541269     16385089 0.0016258701    162.69967    907.74755   -11.455726   0.29238971      173.863            0 
  717000       716998    49.944791    1.0367505     16344712 0.0016298866    161.95439    906.18518    -12.23943   0.29032301     173.9035            0 
  717500       717498    50.024114   0.97926793     16358084 0.0016285542    162.17441    907.58721   -11.852341   0.28499192    173.74176            0 
  718000       717998    50.046129   0.96633161     16378551  0.001626519    161.56274    907.30359   -12.369045   0.28726189    173.64452            0 
  718500       718498    49.994314   0.99496227     16412560 0.0016231488    163.02309    907.99183   -11.285642   0.27765041    174.03108            0 
  719000       718998    49.953223    1.0421852     16396769 0.0016247119    164.16357    908.52001   -10.091992   0.28543564    173.97013            0 
  719500       719498    50.005542   0.99585607     16365825 0.0016277838    162.03594    907.17199    -12.03358   0.29404955    173.77547            0 
  720000       719998    49.991275    1.0175951     16333828 0.0016309726    163.19933    908.12279   -10.834529    0.2838481    173.75001            0 
  720500       720498    50.043698    1.0014658     16272910 0.0016370781    161.54457    907.24919   -12.471858   0.29230463    173.72413            0 
  721000       720998    50.077318   0.99694565     16237910 0.0016406069    160.80487    907.01047    -13.34093   0.28795287    173.85785            0 
  721500       721498    49.946369    1.0347514     16239848  0.001640411    162.57013    906.82445   -11.569485   0.28451517     173.8551            0 
  722000       721998    49.959154    1.0267095     16206357 0.0016438011    162.22316    906.66799   -11.984961   0.30779152    173.90033            0 
  722500       722498    50.030554    1.0336526     16153394 0.0016491907    159.65275    905.16151   -14.440938   0.27830517    173.81538            0 
  723000       722998     50.03664    1.0079387     16153369 0.0016491932     161.5283    907.12775   -12.516025   0.26726833    173.77705            0 
  723500       723498    49.989419    1.0549116     16137184 0.0016508472    157.93732    902.83312   -16.254358   0.29496441    173.89671            0 
  724000       723998    50.012337    1.0294594     16180994 0.0016463776      158.449    903.68631   -15.718249   0.27777842    173.88947            0 
  724500       724498    50.025785    1.0309267     16197985 0.0016446506    157.23008    902.66778   -16.962108   0.29114317    173.90105            0 
  725000       724998    50.023931    1.0006641     16254639 0.0016389184    159.44977    904.85984   -14.560919   0.28850564    173.72219            0 
  725500       725498    50.063254    0.9804474     16285405 0.0016358221    160.37847    906.37449   -13.569187   0.27572528    173.67194            0 
  726000       725998    50.028988    1.0105323     16261961 0.0016381804     160.2952    905.78063   -13.907451   0.28651472    173.91614            0 
  726500       726498    49.979906   0.99378381     16258764 0.0016385026    161.23343    905.98748   -13.052602    0.2812646    174.00477            0 
  727000       726998    49.984166   0.98074767     16247987 0.0016395893    163.53064    908.34818   -10.634358   0.28049028    173.88451            0 
  727500       727498    50.025182    1.0067737     16193328 0.0016451235     162.6481    908.07681   -11.438459   0.29770821    173.78885            0 
  728000       727998    50.024975   0.98853146     16168651 0.0016476345    161.57812    907.00375    -12.41622   0.29387694    173.70046            0 
  728500       728498    50.028591   0.99119656     16176651 0.0016468196    160.94007    906.41958   -13.108587   0.28602124    173.76263            0 
  729000       728998    49.976988   0.99343505     16209342 0.0016434983    162.46801    907.17858   -11.676432   0.29656279    173.84788            0 
  729500       729498    50.028252    1.0095081     16232360 0.0016411678    162.43035    907.90481   -11.844518   0.27886109    173.99601            0 
  730000       729998    50.020032   0.96214792     16286432  0.001635719     164.6678    910.01977   -9.4831858   0.28656598    173.86442            0 
  730500       730498      49.9745    1.0151422     16308105 0.0016335452     164.1517     908.8252   -10.098312   0.29685038    173.95317            0 
  731000       730998    50.016075    1.0023565     16342007 0.0016301563    165.13346    910.42647   -9.0330041   0.29966758     173.8668            0 
  731500       731498    50.051707   0.98233197     16340733 0.0016302834    161.65613    907.48009   -12.372751   0.29505417    173.73382            0 
  732000       731998    49.924048    1.0397721     16374788 0.0016268929    164.69155    908.61326   -9.5151808   0.30686198    173.89987            0 
  732500       732498     50.00752   0.99539609     16395545 0.0016248332    164.38094    909.54648   -9.8796703   0.29159204    173.96902            0 
  733000       732998    50.018508   0.97501534     16422634  0.001622153    163.16918    908.49844   -11.087036   0.28752244    173.96869            0 
  733500       733498    49.990873   0.97727637     16461879 0.0016182859    165.61627    910.53374   -8.5448676   0.29151524    173.86963            0 
  734000       733998      50.0095   0.96022255     16450226 0.0016194322    166.43586    911.63088   -7.7664367    0.2895905     173.9127            0 
  734500       734498    50.006401   0.96590095     16399331 0.0016244581    165.10803    910.25688   -9.1402022   0.28693933    173.96129            0 
  735000       734998      50.0253    0.9872084     16354180 0.0016289429    162.94336    908.37384   -11.155075   0.30387942    173.79456            0 
  735500       735498    50.032302   0.99107636     16355824 0.0016287792    161.27774    906.81255   -12.807152   0.29203266    173.79286            0 
  736000       735998    50.020077   0.97755909     16379274 0.0016264473    160.59764    905.95028   -13.606091   0.29551046    173.90822            0 
  736500       736498    49.948384   0.99548164     16358771 0.0016284857    162.13119    906.41553   -12.080544   0.29574369    173.91599            0 
  737000       736998    50.022562   0.96687873     16316138 0.0016327409    162.45879    907.84846   -11.646423    0.2842871    173.82093            0 
  737500       737498    50.030726   0.95443145     16302236 0.0016341332    163.32766    908.83899   -10.812879   0.28555526    173.85499            0 
  738000       737998    49.991823   0.99894573     16341122 0.0016302446     164.5843    909.51593   -9.6996407   0.29029315    173.99365            0 
  738500       738498    50.010963    1.0021984     16389356 0.0016254467    164.03051    909.24734   -10.235032   0.29558445    173.96995            0 
  739000       738998     50.01779   0.97086303     16472398 0.0016172525    164.83042    910.14898   -9.2896834   0.29725714    173.82284            0 
  739500       739498    50.012376    1.0092254     16508406 0.0016137249     165.3154    910.55329   -8.8102083   0.28494905    173.84066            0 
  740000       739998    49.988542    1.0002231     16520975 0.0016124972    163.84561    908.72835   -10.312512   0.28412237      173.874            0 
  740500       740498    49.985938   0.98408767     16507186 0.0016138442    161.71239    906.55633   -12.523785   0.28787856    173.94829            0 
  741000       740998    50.010377   0.98557278     16460252 0.0016184458     163.5832    908.79131   -10.595563   0.29055509    173.88821            0 
  741500       741498    50.002206    1.0250776     16388640 0.0016255178    164.40039    909.48673   -9.9011566   0.28817479    174.01337            0 
  742000       741998    49.993503    1.0171819     16335070 0.0016308485    163.77047    908.72713   -10.411501   0.27879658    173.90317            0 
  742500       742498    50.057911    1.0144109     16320225 0.0016323321    162.90166    908.81808    -11.36345   0.28528252    173.97983            0 
  743000       742998    49.953833    1.0199445     16306527 0.0016337032    163.58444    907.94997   -10.639093   0.28431427    173.93922            0 
  743500       743498    50.070615   0.99763536     16260605 0.0016383171     162.3324    908.43811   -11.771407   0.29097783    173.81283            0 
  744000       743998    50.055638    1.0160296     16209562 0.0016434759    160.52163    906.40417    -13.63066   0.30340156    173.84889            0 
  744500       744498    49.915727    1.0411006     16189981 0.0016454637    161.75918    905.55689   -12.517891   0.28118428    173.99589            0 
  745000       744998    49.969486    1.0278296     16203215 0.0016441198    160.44542     905.0442    -13.94277   0.28771946    174.10047            0 
  745500       745498     50.03697    1.0169033     16229572 0.0016414497    163.27262    908.87699   -10.694535    0.2823056    173.68485            0 
  746000       745998    50.000217    1.0408402     16257935 0.0016385861    165.54782    910.60452   -8.6280103    0.2835604    173.89227            0 
  746500       746498    50.018755    1.0135704     16298910 0.0016344667    163.10367    908.43661    -11.15862   0.30891754    173.95338            0 
  747000       746998    50.005215    1.0235769     16360396  0.001628324    165.05892     910.1901   -9.2691985   0.28984065    174.03827            0 
  747500       747498    50.072243   0.99526652     16418626  0.001622549    164.90447    911.03444   -9.3723327   0.28808455    173.98871            0 
  748000       747998    50.008901   0.98187801     16475068 0.0016169903    164.95576    910.14186    -9.236885   0.28606821    173.90657            0 
  748500       748498    49.957344   0.96350395     16483731 0.0016161406    164.09445     908.5123   -10.127677   0.26920935    173.95291            0 
  749000       748998    50.090382   0.98242177     16431683 0.0016212597    163.66457    910.06482    -10.41245   0.29175141    173.78526            0 
  749500       749498    50.014581   0.99799901     16418900  0.001622522    165.07712    910.34786   -9.3213035   0.28585627    174.11256            0 
  750000       749998    49.980436    1.0162028     16409458 0.0016234556    166.68763    911.44957   -7.7020718   0.30766742    174.08203            0 
  750500       750498    50.031576    1.0110412     16413734 0.0016230327    163.87843    909.40242   -10.339987   0.29125642    173.92716            0 
  751000       750998    50.017533   0.97492617     16456408 0.0016188238    164.62212    909.93685   -9.4847562   0.27532742    173.83155            0 
  751500       751498    50.061874   0.98001996     16464249 0.0016180529    164.74055    910.71601     -9.49939   0.29594469    173.94399            0 
  752000       751998    49.902517    1.0324489     16471973 0.0016172942    167.12585    910.72672    -7.369643   0.30706535    174.18842            0 
  752500       752498    49.987597   0.99884932     16523817 0.0016122199     166.1024    910.97105   -8.1630498   0.29412058    173.97133            0 
  753000       752998    50.064797     0.969289     16553294 0.0016093489    164.92335    910.94238   -9.3559598   0.30680006    173.97251            0 
  753500       753498    49.992103   0.96964538     16562899 0.0016084156    163.36757    908.30338   -10.915176   0.26702517    174.01572            0 
  754000       753998    50.005861   0.97698901     16549796 0.0016096891    165.32707    910.46788   -8.8865883   0.28891522    173.92474            0 
  754500       754498    50.032305    1.0012046     16518124 0.0016127755    163.46766    909.00252   -10.717531   0.30095869    173.88424            0 
  755000       754998    50.043097   0.97786891     16522809 0.0016123182    163.60245    909.29811   -10.718089   0.28137902    174.03916            0 
  755500       755498    50.031204    0.9726835     16499820 0.0016145646    164.65882    910.17726   -9.7556105   0.30407923    174.11035            0 
  756000       755998    49.992229    1.0002594     16469501 0.0016175369    164.84147    909.77915   -9.4472166   0.28341607    174.00527            0 
  756500       756498    49.986692   0.98890837     16493484 0.0016151849    165.76199    910.61716    -8.556383   0.27359663    174.04478            0 
  757000       756998    49.990313    1.0279161     16544473 0.0016102069    165.26198     910.1711   -8.9505466   0.28155844    173.93097            0 
  757500       757498    49.955744    1.0249407     16601567 0.0016046693    165.14838     909.5424   -9.1201978   0.28671121    173.98187            0 
  758000       757998    50.073366     1.007022     16633862 0.0016015539    162.62938    908.77608   -11.730436   0.29751872     174.0623            0 
  758500       758498    50.017222   0.98497489     16680989 0.0015970292    165.21155    910.52165    -9.118636    0.2841969    174.04599            0 
  759000       758998    50.003684   0.99577539     16646415 0.0016003461    164.13946    909.24783   -10.042398   0.27889203    173.90296            0 
  759500       759498    50.016399    0.9938699     16609491 0.0016039038    163.56169    908.85953   -10.714698   0.28532184    173.99107            0 
  760000       759998     49.94674    1.0300446     16580127 0.0016067444    163.18187    907.44171   -11.324686   0.26427837    174.24228            0 
  760500       760498    49.982774    1.0162806     16586067  0.001606169    163.30231    908.09909   -11.018062   0.29708702    174.02328            0 
  761000       760998    50.045611    1.0026151     16588237 0.0016059589    163.44091    909.17404   -10.723045   0.29093533    173.87302            0 
  761500       761498    50.000645   0.99685175     16611111 0.0016037474    164.93643    909.99952   -9.3209957   0.27525718    173.98217            0 
  762000       761998    49.965159    1.0057964     16635388 0.0016014069    162.82453    907.35883   -11.472975   0.29602674    174.00148            0 
  762500       762498    49.974797    1.0475767     16655323 0.0015994902    163.34763    908.02555   -10.951856   0.30373057    173.99575            0 
  763000       762998    49.987226   0.98082083     16690790 0.0015960914    165.74734    910.61046   -8.5017021   0.28221169    173.96683            0 
  763500       763498    49.994346    1.0090203     16660133 0.0015990284    162.59379      907.563   -11.899228   0.27935238    174.21367            0 
  764000       763998    50.007929    1.0039049     16681613 0.0015969694    162.70084    907.87246    -11.83057   0.28388282    174.24753            0 
  764500       764498    50.009531   0.96978404     16704416 0.0015947894    164.14403    909.33952   -10.111012   0.29274915     173.9623            0 
  765000       764998    50.002591    1.0002936     16694556 0.0015957313    162.84188    907.93397    -11.26946   0.29399512    173.81734            0 
  765500       765498    50.068499   0.98561639     16705368 0.0015946986    164.85271    910.92688   -9.4277892    0.2788111    174.00168            0 
  766000       765998    50.002354    1.0018852     16685715 0.0015965768    163.64167    908.73022   -10.628777   0.30701418    173.96344            0 
  766500       766498    50.022546   0.99313725     16679348 0.0015971863    164.18415    909.57358   -10.175159   0.28041228     174.0789            0 
  767000       766998    49.950151     1.033927     16656198 0.0015994061    165.22994    909.54062   -9.2394995   0.28229046    174.18715            0 
  767500       767498    49.980397   0.98962119     16651006 0.0015999049     164.7614    909.52277   -9.7487176   0.30000027    174.21012            0 
  768000       767998    49.974424   0.97929758     16658190 0.0015992149    165.04994    909.72231   -9.1760179   0.28631901    173.93964            0 
  768500       768498    50.047613    1.0118109     16674691 0.0015976323    164.33004    910.09301   -9.8873204   0.28288255    173.93448            0 
  769000       768998    50.065071    1.0112503     16711440 0.0015941191    162.73102    908.75412   -11.667297   0.30306242    174.09525            0 
  769500       769498    49.993532   0.99145846     16749675 0.0015904802    162.92162    907.87871    -11.33065   0.28508709    173.96718            0 
  770000       769998    50.007373   0.98224326     16747662 0.0015906714    162.33555    907.49889    -12.04952   0.29172192    174.09335            0 
  770500       770498    49.996391   0.98615198     16731529 0.0015922051    164.20624    909.20593    -10.04916   0.27988551    173.97551            0 
  771000       770998    49.972636    1.0248435     16708497 0.0015943999    165.01023    909.65595   -9.3494273   0.30493148    174.05473            0 
  771500       771498    49.990417    1.0449022     16741285 0.0015912773    164.58872     909.4994   -9.9741934   0.28598523    174.27693            0 
  772000       771998    49.972629   0.97914117     16838046 0.0015821329    165.84196    910.48758   -8.5343426   0.28166813    174.09463            0 
  772500       772498    49.996222    1.0059885     16886158  0.001577625    164.78462    909.78178   -9.5315791   0.29419996    174.02199            0 
  773000       772998    50.053198    0.9673383     16881742 0.0015780378    164.11727    909.96344   -10.042645   0.27669134    173.88322            0 
  773500       773498    50.063842   0.99499758     16834636 0.0015824533    162.26187    908.26667   -12.155906   0.29917393    174.11861            0 
  774000       773998    50.024514    0.9680313     16834110 0.0015825028    164.13519    909.55394   -10.273875   0.30076024    174.10831            0 
  774500       774498    49.985174   0.98594593     16781229 0.0015874896    163.24482    908.07738   -11.162477   0.28610589    174.12119            0 
  775000       774998    50.025413   0.97936116     16714880  0.001593791    162.01036    907.44251   -12.319861   0.29392668    174.03629            0 
  775500       775498     49.99514   0.96498075     16701300  0.001595087    162.74393    907.72499   -11.610682   0.28268534    174.07193            0 
  776000       775998    50.007247   0.98959545     16695421 0.0015956487    162.97978    908.14125   -11.370987   0.29190335    174.05887            0 
  776500       776498    50.027993   0.97230025     16696051 0.0015955884    160.53185    906.00245    -13.76995   0.29148959    174.01031            0 
  777000       776998    50.006595   0.99839631     16697823 0.0015954191    160.27531    905.42706   -14.131778    0.2876489    174.11944            0 
  777500       777498    49.960829   0.98256562     16725496 0.0015927794    162.51289    906.98267   -11.799614   0.29815329    174.01435            0 
  778000       777998    50.027503   0.97862288     16705204 0.0015947142     161.7972    907.26049   -12.583967   0.27996989    174.10119            0 
  778500       778498     50.01294    1.0567835     16677596 0.0015973541    161.23411     906.4804   -13.134133   0.30902634    174.05922            0 
  779000       778998    50.028811   0.98052311     16679402 0.0015971811    162.05393    907.53672   -12.225573   0.29470256     173.9848            0 
  779500       779498    49.944941    1.0182404     16667534 0.0015983184    161.22326     905.4563   -13.216221   0.28096707    174.15851            0 
  780000       779998    49.968292   0.98356197     16697513 0.0015954487    162.47247    907.05345   -12.071571   0.27881146    174.26523            0 
  780500       780498    50.017051     1.004238     16687613 0.0015963952     161.7738    907.08135   -12.769157    0.3007613     174.2422            0 
  781000       780998    50.019018   0.99059804     16704643 0.0015947677    160.61542    905.95228   -13.706089   0.28791453     174.0336            0 
  781500       781498    49.990366   0.99076532     16721488 0.0015931612    162.09243    907.00234   -12.053687   0.28646184    173.85966            0 
  782000       781998    49.950471    1.0630167     16717485 0.0015935427    162.83113    907.14657   -11.399096   0.30590718    173.92432            0 
  782500       782498    50.012758    1.0054406     16755577   0.00158992    162.54144    907.78502   -11.853792   0.28413383     174.1111            0 
  783000       782998    49.989144    1.0064396     16765652 0.0015889645    161.44137    906.33307   -13.040934   0.27496653    174.20734            0 
  783500       783498    49.980174     1.007523     16800109 0.0015857055    161.70024    906.45828   -12.865051   0.28665329    174.27864            0 
  784000       783998    49.972692    1.0289477     16791219 0.0015865451    161.35014    905.99669   -13.155134   0.29695999    174.20832            0 
  784500       784498    49.974515     1.021987     16801567 0.0015855679    162.35414    907.02785   -11.876766   0.28156497    173.94934            0 
  785000       784998    50.046751    1.0083338     16829217 0.0015829629     161.2975    907.04761   -12.893264    0.2852949    173.90547            0 
  785500       785498    50.022769    1.0064065     16880924 0.0015781142    163.10402    908.49677   -11.246145   0.29355875     174.0566            0 
  786000       785998    50.044211    0.9968786     16893418 0.0015769471    161.20203    906.91429   -13.166141   0.25997875    174.10819            0 
  786500       786498    49.999091    0.9991651     16920661 0.0015744081    163.51791    908.55784    -10.92094   0.29085858    174.14799            0 
  787000       786998     49.98653    0.9890226     16932340 0.0015733222    165.04156    909.89432   -9.4610069   0.28314642    174.21942            0 
  787500       787498    50.000982    1.0017203     16933971 0.0015731707    164.85842    909.92652   -9.5716343   0.28571148    174.14434            0 
  788000       787998    50.018299    1.0081669     16944223 0.0015722188    162.20437    907.53051   -12.062011   0.29494654    173.97143            0 
  788500       788498    50.029388   0.98342025     16973190 0.0015695356    161.67499    907.16638   -12.692989   0.27714296    174.09084            0 
  789000       788998    49.972017      1.00939     16993339 0.0015676746    161.85373    906.49023   -12.602588   0.29775604    174.15856            0 
  789500       789498    50.037004   0.99372097     17009593 0.0015661765    163.71562     909.3205   -10.589236   0.27339397    174.03146            0 
  790000       789998    50.007394   0.99163157     16997958 0.0015672486    163.74168    908.90532   -10.586376   0.27903478    174.04902            0 
  790500       790498     49.97863    1.0097618     16997302 0.0015673091    164.93231    909.66734   -9.5089285   0.29059474    174.15064            0 
  791000       790998      50.0496    0.9922454     16998462 0.0015672021    162.53671    908.32927   -11.918863   0.27185187    174.18372            0 
  791500       791498    50.037534   0.98682748     16999424 0.0015671134    161.94579    907.55856   -12.510268   0.29306224      174.163            0 
  792000       791998    49.981943    1.0074067     16983323 0.0015685991    163.30486    908.08926   -11.025761   0.28098402    174.04964            0 
  792500       792498    49.985304    1.0215774     16940965 0.0015725212    161.97196    906.80644   -12.408896   0.27767946    174.10317            0 
  793000       792998    49.999341   0.99882475     16925591 0.0015739495    161.60939    906.65304   -12.807482   0.29219013    174.12468            0 
  793500       793498    50.049316   0.98072754     16908745 0.0015755176    160.47957    906.26791    -13.92416   0.28350781    174.12022            0 
  794000       793998    50.034941    1.0012923     16860627  0.001580014    158.07065    903.64479   -16.399786   0.28137227    174.18907            0 
  794500       794498     50.05739   0.97302117     16857588 0.0015802988    159.63626    905.54491   -14.741711   0.29873448    174.07924            0 
  795000       794998    50.041604   0.96271765     16882155 0.0015779991    160.57094    906.24436   -13.767127   0.27663578    174.06143            0 
  795500       795498    49.945031    1.0182057     16905431 0.0015758265    161.59362      905.828   -12.962719   0.28890624    174.26743            0 
  796000       795998    49.948209   0.99588994     16956770 0.0015710555    163.07139    907.35311   -11.268935   0.27247423    174.06785            0 
  796500       796498    50.033737   0.98119514     16985099 0.0015684351    160.86632    906.42252   -13.481208   0.29417844    174.05335            0 
  797000       796998     49.99165   0.99041975     17010242 0.0015661168    162.70061    907.62966   -11.887952   0.30222764    174.28634            0 
  797500       797498    49.952748   0.99859559     16971524 0.0015696896    162.07177    906.42113   -12.492651   0.27455336    174.28986            0 
  798000       797998    50.045057   0.96763599     16959157 0.0015708343     161.7782    907.50308   -12.636085   0.28570296    174.12858            0 
  798500       798498    49.973469   0.98718061     17000363 0.0015670269    165.74561    910.40374    -8.672413   0.28351812    174.13451            0 
  799000       798998    50.026666    0.9891101     17019309 0.0015652824     164.8783    910.32913   -9.5213242   0.28236966    174.11726            0 
  799500       799498    50.004809    1.0092725     17030073 0.0015642931    164.92916    910.05429   -9.5541406   0.31338709    174.16992            0 
  800000       799998    50.062976   0.99083519     17069763 0.0015606559    163.19761    909.18949   -11.363651   0.29878917    174.26247            0 
  800500       800498    50.004068   0.98926519     17109624   0.00155702    162.89911    908.01319   -11.634414    0.2926056    174.24092            0 
  801000       800998    49.961322   0.98663862     17106612 0.0015572941    163.21323    907.69036   -11.155058   0.29571092    174.07257            0 
  801500       801498    50.019469   0.95414557     17063295 0.0015612475    161.34111    906.68469   -13.154491   0.29440683     174.2012            0 
  802000       801998    49.913946    1.0345291     17010223 0.0015661186    163.33377    907.10495   -11.239003   0.30454997    174.26822            0 
  802500       802498    49.997796    0.9732655     17008815 0.0015662482     166.2484    911.26903   -8.2313132   0.28774358    174.19197            0 
  803000       802998    50.026794   0.98769279     16987131 0.0015682475    166.55169    912.00443   -7.9272915   0.31834291    174.16064            0 
  803500       803498    49.973943    1.0127151     16986905 0.0015682684    166.02241    910.68761   -8.4148099    0.2913288    174.14589            0 
  804000       803998    49.929183    1.0408958     17013211 0.0015658435    166.64138    910.63961   -7.8555106   0.29740331    174.19949            0 
  804500       804498    50.019233    1.0117966     17041687 0.0015632271    164.60821    909.94827     -9.99065   0.30537696    174.29348            0 
  805000       804998    50.002106   0.99425531     17087641  0.001559023    163.10294    908.18779   -11.343225   0.27630143    174.16987            0 
  805500       805498    49.984695   0.96763434     17133788  0.001554824    165.36431    910.18971   -8.9981148   0.28856327    174.07386            0 
  806000       805998     49.99048   0.97277453     17121238 0.0015559638    165.59772    910.50933     -8.93269   0.29231256     174.2381            0 
  806500       806498    50.024654    1.0155826     17071069 0.0015605365     165.2588    910.67964   -9.3414996   0.27887216    174.32143            0 
  807000       806998    50.011144    1.0298419     17029455 0.0015643499    163.98736    909.20689   -10.563569   0.30515287    174.24578            0 
  807500       807498    50.005662    0.9857983     17023098 0.0015649341    162.84596     907.9838   -11.664405   0.28980745    174.22056            0 
  808000       807998    49.977067   0.98563144     16988413 0.0015681292    163.08157    907.79332   -11.371444   0.28793948    174.16507            0 
  808500       808498    50.017645    1.0222377     16929336 0.0015736013    162.87251    908.18891    -11.75336   0.32633276    174.29953            0 
  809000       808998    50.015747   0.97891061     16882399 0.0015779764    163.22712    908.51524   -11.195229    0.2815775    174.14078            0 
  809500       809498     49.95329   0.98843958     16850282  0.001580984    164.50412    908.86156   -9.8989685   0.29327122    174.10981            0 
  810000       809998    50.015714   0.99200593     16813762  0.001584418    163.77184    909.05947   -10.832116   0.30288097    174.30108            0 
  810500       810498    50.035038   0.97049054     16812193 0.0015845657     162.7444    908.31998   -11.695428   0.29556125    174.14427            0 
  811000       810998    49.994689    1.0085855     16808397 0.0015849236    163.96079    908.93512   -10.563219   0.28851375    174.23549            0 
  811500       811498    49.999654    1.0048999     16787198 0.0015869251    163.91986    908.96817   -10.614939   0.30497902    174.22982            0 
  812000       811998    49.973559   0.98195087     16793995 0.0015862828    164.98435    909.64382   -9.5106584    0.3037192    174.19129            0 
  812500       812498    49.994169    1.0083968     16796543 0.0015860422    165.10105    910.06763   -9.4770127   0.30464973    174.27341            0 
  813000       812998    50.006851   0.97904434     16829373 0.0015829482    165.05997    910.21553   -9.3434176   0.29163012    174.11176            0 
  813500       813498    49.990631    1.0181621     16824223 0.0015834328    163.77078    908.68464   -10.738879   0.29177314    174.21789            0 
  814000       813998    49.970893    1.0008394     16834167 0.0015824974     164.7262    909.34595    -9.928794   0.29540295    174.35959            0 
  814500       814498    50.021746    0.9852679     16831066  0.001582789    164.64799     910.0255   -9.9340643   0.29056659    174.29149            0 
  815000       814998     50.00585   0.97774749     16841746 0.0015817853    164.28989    909.43054   -10.131834   0.30845501    174.11327            0 
  815500       815498    49.984857    1.0083476     16873189 0.0015788376    163.33688    908.16471   -11.031462    0.2917344    174.07661            0 
  816000       815998     50.00249   0.98584159     16901315 0.0015762102    164.14263    909.23321   -10.444567   0.31504064    174.27216            0 
  816500       816498    49.957051   0.99822818     16897976 0.0015765217    164.29312     908.7066   -10.191649   0.30025014    174.18452            0 
  817000       816998    49.992751   0.98666397     16876989 0.0015784821    163.54955      908.495   -10.950952   0.27549292    174.22501            0 
  817500       817498    50.031263   0.97201237     16854437 0.0015805942    163.66854    909.18786   -10.919497   0.30231961    174.28572            0 
  818000       817998    49.971762    1.0014905     16817281 0.0015840864    165.28866    909.92136   -9.2939166   0.29647452     174.2861            0 
  818500       818498    50.016999   0.98267565     16769729 0.0015885782    164.60197    909.90874   -10.020033   0.28772919    174.33428            0 
  819000       818998    49.999484    1.0121182     16713074 0.0015939632    164.08053    909.12632    -10.44263   0.29275543     174.2304            0 
  819500       819498    50.004069   0.99443286     16687006 0.0015964533     164.9383     910.0524   -9.4140206   0.29864009    174.05368            0 
  820000       819998    50.022521   0.98751218     16670865  0.001597999     165.3472    910.73625   -9.0031515   0.29433223    174.05602            0 
  820500       820498    49.980061    1.0226423     16659029 0.0015991344    163.97796    908.73431   -10.611995   0.30139092    174.28856            0 
  821000       820998    50.012834   0.99387248     16660139 0.0015990278    161.50993    906.75464      -13.184    0.3075548    174.38637            0 
  821500       821498    49.919422    1.0305754     16678776 0.0015972411    162.06982    905.92259    -12.47959   0.30422948    174.24518            0 
  822000       821998    50.045792   0.94624068     16717999 0.0015934937    161.83704    907.57286    -12.52896   0.29553653    174.07046            0 
  822500       822498    49.957195    1.0025382     16712487 0.0015940192     164.2363    908.65193   -10.283603   0.30093745    174.21896            0 
  823000       822998    49.944843    1.0024714     16741728 0.0015912351    163.72434    907.95591   -10.825642   0.30517832     174.2448            0 
  823500       823498    50.044475    1.0279211     16766233 0.0015889095    161.70426    907.42045   -12.828866   0.30784022    174.22528            0 
  824000       823998    49.929813    1.0247758     16819365 0.0015838901    163.70401    907.71161   -10.937809   0.30601174     174.3358            0 
  824500       824498    49.996347    1.0016838     16818187  0.001584001    161.83104    906.83007    -12.81242   0.30625916     174.3372            0 
  825000       824998    49.951227    1.0118754     16800886 0.0015856322    161.88775    906.21445   -12.734039   0.30392845    174.31786            0 
  825500       825498    50.033388    1.0030596     16766882  0.001588848    159.84671     905.3977   -14.668382   0.28497591    174.23011            0 
  826000       825998    50.016591   0.99377591     16719824 0.0015933198    160.75814    906.05884   -13.711086   0.30198268    174.16724            0 
  826500       826498    50.012419   0.98746989     16661949 0.0015988541    160.81233    906.05085   -13.668958   0.31445398    174.16683            0 
  827000       826998    50.003574   0.99588361     16630977 0.0016018316    162.84849    907.95522   -11.804519   0.28937079    174.36364            0 
  827500       827498    50.010922    1.0282727     16603336 0.0016044983    161.65568     906.8719   -12.937942   0.30183336    174.29179            0 
  828000       827998    49.998206    1.0015132     16675429 0.0015975617    163.03146     908.0582     -11.5399   0.30460265    174.26675            0 
  828500       828498    50.029474   0.99438053     16737888 0.0015916002    163.16026    908.65293   -11.408692   0.29712371    174.27183            0 
  829000       828998    50.032493   0.97785084     16765698 0.0015889602    164.68477    910.22242   -9.7428717   0.29544206     174.1322            0 
  829500       829498    49.996105   0.98921911     16754405 0.0015900312    164.07848    909.07391   -10.482521   0.29433171    174.26667            0 
  830000       829998    50.047984    1.0088063     16758057 0.0015896846     163.6853    909.45378   -10.903724   0.30150759    174.28752            0 
  830500       830498     50.03795   0.99790009     16793364 0.0015863424    163.00405    908.62301   -11.440671   0.28477992    174.15994            0 
  831000       830998    50.025711    1.0153511     16835253 0.0015823954     165.4225    910.85909   -9.1810498   0.30644684     174.2971            0 
  831500       831498    50.029811   0.99769709     16878342 0.0015783556    163.79438    909.29207   -10.938378   0.31681727    174.41594            0 
  832000       831998    49.994631     1.004498     16920993 0.0015743772    164.92427    909.89775   -9.8037303   0.29096744    174.43704            0 
  832500       832498     50.01689   0.98921454     16940537 0.0015725609    165.42778    910.73294   -8.9882885   0.29739887    174.11867            0 
  833000       832998    50.041965   0.99033566     16979475 0.0015689546    164.75507    910.43386   -9.5593761   0.29761934    174.01682            0 
  833500       833498    50.012213   0.97993787     16998724  0.001567178    165.13828    910.37374   -9.4072556    0.2993497    174.24618            0 
  834000       833998    49.974017    0.9906176     16964713 0.0015703199    165.60473    910.27102   -9.1653745   0.29003016    174.48007            0 
  834500       834498    50.048238   0.99692408     16921416 0.0015743378    165.09562     910.8679   -9.6082389   0.30292744    174.40093            0 
  835000       834998    50.018218    1.0182558     16899422 0.0015763868     162.0639    907.38883    -12.49318   0.30465894    174.25242            0 
  835500       835498     50.02694     1.020158     16951189 0.0015715727    162.89395    908.34885   -11.663498   0.30313112    174.25432            0 
  836000       835998    50.021203   0.97509822     16991832 0.0015678136     165.1191    910.48851   -9.3560574   0.29726176    174.17789            0 
  836500       836498    49.951072    1.0158184     16975199 0.0015693499    165.52212    909.84651   -9.0656573   0.30113922    174.28664            0 
  837000       836998    50.004515   0.99281288     16975140 0.0015693553    165.26495     910.3857   -9.4769667   0.30447423    174.43744            0 
  837500       837498    50.015777   0.99208398     16964377  0.001570351    165.34122    910.62979   -9.2220379   0.29777281    174.26548            0 
  838000       837998    50.012585    0.9815459     16948425  0.001571829     165.2711     910.5121   -9.1931142   0.29810429    174.16611            0 
  838500       838498    50.011463    1.0086757     16935092 0.0015730665    164.88116    910.10544   -9.6607004   0.31313965    174.22872            0 
  839000       838998    49.965832    1.0049973     16947214 0.0015719413    165.19239    909.73672   -9.3854358   0.29931873     174.2785            0 
  839500       839498    50.038002   0.99299793     16943878 0.0015722508    164.01071    909.63046   -10.687839   0.30134111    174.39721            0 
  840000       839998    50.004738   0.98731074     16954488 0.0015712669    165.23907    910.36314   -9.4115201   0.31230208    174.33829            0 
  840500       840498    49.938816    1.0032094     16932255 0.0015733301    164.27618    908.41794   -10.326522   0.29517382    174.30752            0 
  841000       840998    49.977707   0.99136949     16919190  0.001574545     164.8259    909.54718   -9.7669845   0.29008108     174.3028            0 
  841500       841498    49.868709    1.0663108     16875469 0.0015786244    166.19195    909.28904   -8.5233393   0.33441258    174.38087            0 
  842000       841998    49.922032    1.0284867     16887615 0.0015774889    165.52498    909.41665   -9.0977038   0.30387194    174.31881            0 
  842500       842498    49.955677    1.0314545     16902342 0.0015761145    165.49548    909.88848   -9.0060009   0.32080376    174.18067            0 
  843000       842998    49.947393     1.016715     16942197 0.0015724068    166.11678    910.38635   -8.5739159   0.30863341    174.38206            0 
  843500       843498    50.026669    0.9872132     16976968 0.0015691863    163.15627    908.60714   -11.568327   0.29799573     174.4266            0 
  844000       843998    49.985284   0.98085043     17011797 0.0015659736    163.10884    907.94302   -11.528931   0.28398092    174.35379            0 
  844500       844498    50.074969   0.98153815     17012216 0.0015659351    161.57021     907.7408   -12.952961   0.28424126    174.23893            0 
  845000       844998    50.005319   0.98223898     17013045 0.0015658588    161.66456    906.79728   -13.060551   0.29724329    174.42786            0 
  845500       845498    49.871846    1.0717075     17006633 0.0015664491     164.0849    907.22874   -10.696299   0.36782466    174.41337            0 
  846000       845998    50.015588   0.99327776     16981120 0.0015688027    159.51873    904.80448   -14.896513   0.28888829    174.12636            0 
  846500       846498     49.95731    1.0056846     17006508 0.0015664607    163.29916     907.7165   -11.437676   0.29595132    174.44089            0 
  847000       846998    50.035062   0.96770583     17009812 0.0015661564    163.84855    909.42448   -10.716302    0.2954963    174.26936            0 
  847500       847498    50.011023    1.0018757     16995710 0.0015674559    164.32676    909.54448   -10.256929   0.26938182     174.3143            0 
  848000       847998    49.957004    1.0318186     17014309 0.0015657425     163.5448    907.95759   -11.177675   0.30820742    174.41427            0 
  848500       848498    49.996242   0.99771435     17063281 0.0015612487      164.137    909.13448   -10.604784   0.30936897    174.43241            0 
  849000       848998    49.973154    1.0238224     17088984 0.0015589005    164.39673    909.05017   -10.316669   0.30346516    174.40994            0 
  849500       849498    50.054693   0.98504707     17100922 0.0015578122    164.23364     910.1021    -10.19775   0.28341712    174.14797            0 
  850000       849998    49.984645   0.97138738     17141901 0.0015540882    163.87073     908.6954   -10.758944   0.29198984    174.33769            0 
  850500       850498     50.02376   0.97975543     17174134 0.0015511714    163.83776    909.24528   -10.849713   0.29297359     174.3945            0 
  851000       850998     50.04989   0.98214039     17187314 0.0015499819    164.29294    910.08983   -10.263777   0.28537265    174.27135            0 
  851500       851498    50.010607   0.98963721     17197391 0.0015490737    165.16985    910.38138   -9.5385101   0.31905078    174.38931            0 
  852000       851998    49.995189    1.0425995     17166556 0.0015518561    164.07039    909.05218   -10.798367   0.30935677     174.5594            0 
  852500       852498    50.075074    1.0114415     17141113 0.0015541596     163.2544    909.42656   -11.478266    0.2885824    174.44409            0 
  853000       852998     50.07114     0.978135     17161488 0.0015523144    163.72848    909.84202   -10.765303   0.28761165    174.20617            0 
  853500       853498    50.021593   0.98741011     17197863 0.0015490312    165.08711    910.46234   -9.5078151   0.30762767     174.2873            0 
  854000       853998    49.951841   0.99853675     17207447 0.0015481684    166.61581    910.95167   -8.1354162   0.29610617    174.45512            0 
  854500       854498    50.059213   0.99519178     17180920 0.0015505587    165.36127    911.29709   -9.3716398    0.2873085     174.4456            0 
  855000       854998    50.015023   0.97966109     17169358 0.0015516029    165.02784    910.30517   -9.5742089   0.32954827     174.2725            0 
  855500       855498    50.027133   0.98417693     17160652   0.00155239    165.70751    911.16529    -8.892343   0.29467064    174.30518            0 
  856000       855998     50.07261     1.015254     17126863 0.0015554527    163.19512    909.33057   -11.642644    0.2836259    174.55414            0 
  856500       856498    49.981708    1.0023787     17164158  0.001552073    165.29255    910.07345   -9.4335634    0.3114253    174.41469            0 
  857000       856998    50.004584    1.0140907     17157410 0.0015526834    166.85447    911.97625   -7.6983075   0.29128222    174.26149            0 
  857500       857498    50.033547   0.99784098     17151927 0.0015531798    167.48313    913.03649   -7.1336587   0.28508702     174.3317            0 
  858000       857998    50.000419    1.0064992     17155063 0.0015528958    167.48973    912.54945   -7.1326045   0.31295098    174.30939            0 
  858500       858498    49.998691   0.99673056     17187918 0.0015499274    167.27664    912.31061   -7.4816684   0.30251614    174.45579            0 
  859000       858998    49.997372   0.99059529     17201625 0.0015486924    167.91669    912.93101   -6.7936306   0.29536757    174.41495            0 
  859500       859498     49.98146    1.0067018     17196048 0.0015491947    167.84948    912.62668   -6.9448401   0.28768566    174.50663            0 
  860000       859998    50.005494   0.99897853     17215295 0.0015474626    166.67856    911.81389   -8.0908121   0.29927825    174.47009            0 
  860500       860498    50.012218   0.97772463     17245464 0.0015447556    165.03843    910.27396   -9.5593616   0.31343551    174.28435            0 
  861000       860998    49.994727    1.0059863     17243957 0.0015448905    166.00272    910.97761   -8.6920886    0.2881919    174.40661            0 
  861500       861498    49.988202   0.99784578     17194397 0.0015493434    167.76096    912.63863   -6.9501504   0.31465636    174.39645            0 
  862000       861998    49.963618    1.0076478     17155056 0.0015528964    166.46971    910.98106   -8.2097834   0.32911266    174.35038            0 
  862500       862498    50.047618   0.98922409     17147216 0.0015536065    165.20881    910.97184   -9.4024509   0.26987206    174.34139            0 
  863000       862998    50.030591    0.9632347     17158012 0.0015526289    164.15925    909.66856   -10.385714   0.30398995    174.24097            0 
  863500       863498    50.004517    1.0015149     17175706 0.0015510294    165.29211    910.41289   -9.4501527   0.31225239    174.43001            0 
  864000       863998    49.920162    1.0264389     17168509 0.0015516797    165.71269    909.57649   -9.0908435   0.31184836    174.49168            0 
  864500       864498    50.013516   0.98365307     17139784 0.0015542801     163.4885    908.74337   -11.229106   0.30874418    174.40886            0 
  865000       864998    49.783715    1.1163991     17102279 0.0015576887    166.41568    908.24628   -8.5988733   0.32441539    174.69014            0 
  865500       865498    49.980774   0.98693128     17095442 0.0015583116    166.00762     910.7746   -8.5074356   0.31345142    174.20161            0 
  866000       865998    50.015816   0.99731508     17048681 0.0015625857    163.60042    908.88956   -10.914557   0.29273685    174.22224            0 
  866500       866498    49.994473   0.99018593     17021920 0.0015650423    163.69119    908.66231   -11.106657   0.30479098    174.49306            0 
  867000       866998    50.018678   0.98187081     16978999 0.0015689986    163.61615    908.94793    -11.19428   0.31351197    174.49692            0 
  867500       867498    49.936904    1.0597077     16922325 0.0015742533    163.55517    907.66845   -11.350484   0.31535105     174.5903            0 
  868000       867998     49.92859   0.99902785     16919550 0.0015745115    163.69725    907.68665   -10.989983   0.32129517    174.36594            0 
  868500       868498     50.02083   0.98200794     16903119  0.001576042    162.24162    907.60547   -12.433695    0.3155952    174.35972            0 
  869000       868998    50.024977   0.97869406     16914554 0.0015749765    164.11782    909.54348   -10.483265   0.29038847     174.3107            0 
  869500       869498    49.955622    1.0030219     16918649 0.0015745953    163.90138    908.29356     -10.9513   0.30534539    174.54733            0 
  870000       869998    50.007685   0.97214934     16901907  0.001576155     164.3841    909.55209   -10.172876   0.30664335    174.25033            0 
  870500       870498    50.014988   0.98397845     16850723 0.0015809426    165.61394    910.89075   -9.0476823   0.30170703    174.35992            0 
  871000       870998    49.999295    1.0110828     16811928 0.0015845908    164.79112    909.83409   -10.217696   0.32017999    174.68864            0 
  871500       871498     49.98449    1.0246842     16808415  0.001584922    165.43654     910.2589   -9.3729955   0.31157183    174.49796            0 
  872000       871998    50.004503    1.0097955     16798535 0.0015858541    165.17883     910.2994   -9.4889111   0.31840846    174.34933            0 
  872500       872498    49.992762    1.0014572     16814176 0.0015843789    164.93347     909.8791   -9.6922417   0.30079215    174.32492            0 
  873000       872998    50.038718    1.0039887     16810817 0.0015846955    164.03769     909.6681   -10.592335   0.29602649      174.334            0 
  873500       873498    50.002086    1.0257402     16790202 0.0015866412    163.28159    908.36614    -11.47352   0.29780678     174.4573            0 
  874000       873998    50.004974      1.00942     16779987  0.001587607    163.98587    909.11346   -10.901444   0.30291068     174.5844            0 
  874500       874498    49.994252   0.99867692     16787508 0.0015868958    164.73538     909.7032   -10.041646    0.3217666    174.45526            0 
  875000       874998    50.054689    1.0201733     16815851 0.0015842211    164.56432    910.43273   -10.160133   0.29812987    174.42633            0 
  875500       875498    49.983958    1.0085899     16852592 0.0015807673    166.33558    911.15001   -8.2849766   0.31724624    174.30331            0 
  876000       875998    50.041976   0.97508348     16873968 0.0015787647    164.79814    910.47709    -9.888838   0.29541239    174.39156            0 
  876500       876498    50.017899   0.98736519     16867424 0.0015793773    164.53221     909.8524   -10.244431   0.28473988     174.4919            0 
  877000       876998    50.027191    0.9998668     16825465 0.0015833159    161.99632    907.45497   -12.757224   0.31912954    174.43442            0 
  877500       877498    49.954696    1.0010681     16841544 0.0015818043    163.69606    908.07445   -11.097944   0.29781737    174.49619            0 
  878000       877998    50.057369   0.99566697     16865677 0.0015795409      164.403    910.31133   -10.385762   0.29298896    174.49577            0 
  878500       878498    49.973197    1.0052052     16887892  0.001577463    163.63737    908.29145   -11.213132   0.35005434    174.50045            0 
  879000       878998    49.993172   0.98318863     16918834 0.0015745781     164.2401    909.19183   -10.441873   0.29310443    174.38887            0 
  879500       879498    49.996173   0.97767473     16929516 0.0015735846    163.60196     908.5984   -10.946146   0.29838731    174.24972            0 
  880000       879998    49.981934     1.035467     16914083 0.0015750204    163.29624    908.08051   -11.552097   0.32808959    174.52025            0 
  880500       880498    50.027952   0.96012436     16915246 0.0015749121    162.46478    907.93477   -12.334003   0.30057927    174.49821            0 
  881000       880998    49.995055    1.0209225     16882989 0.0015779212    163.83211    908.81189   -11.104692   0.30742988    174.62937            0 
  881500       881498    49.992347   0.97816757     16869469 0.0015791858    163.36314    908.30258   -11.477769   0.31054875    174.53036            0 
  882000       881998     50.05738   0.98410297     16873339 0.0015788236    163.41114    909.31963   -11.261267   0.32919631    174.34321            0 
  882500       882498    50.011647   0.98736953     16893305 0.0015769576    164.53687    909.76389   -10.073059   0.29887865    174.31105            0 
  883000       882998    49.977424   0.97671586     16891931 0.0015770859    163.03677    907.75384   -11.720386   0.29726959    174.45989            0 
  883500       883498    50.001251   0.97197018     16889406 0.0015773216    164.21369     909.2858   -10.706316   0.32511399    174.59489            0 
  884000       883998    50.009409   0.95535136     16877730 0.0015784128    162.03652    907.23019    -12.74588   0.29295922    174.48944            0 
  884500       884498    50.012311   0.96680146     16840132 0.0015819369    161.59694    906.83386   -13.121627   0.30989827    174.40867            0 
  885000       884998    49.906746    1.0460163     16791026 0.0015865633    162.49228    906.15617   -12.274455   0.32592717    174.44081            0 
  885500       885498    49.935857   0.99976862     16801346 0.0015855888    164.33864    908.43632   -10.562762   0.30896088    174.59244            0 
  886000       885998    50.011491   0.99138127     16820417 0.0015837911    163.22854    908.45324   -11.650927   0.30978561    174.56968            0 
  886500       886498    49.958236   0.97399276     16905333 0.0015758356    163.90558    908.33672   -10.861358   0.30462286    174.46232            0 
  887000       886998    50.023977   0.98641756     16943775 0.0015722604    163.95339    909.36414   -10.689229   0.32604605    174.31658            0 
  887500       887498    49.969988   0.96741307     16969708 0.0015698577    164.33872    908.94498   -10.282241   0.30991134    174.31105            0 
  888000       887998    50.003006   0.99501447     16941042 0.0015725141    164.77046    909.86873   -10.023356   0.29688264    174.49693            0 
  888500       888498    49.977425    1.0008059     16927621 0.0015737608    166.19632     910.9134   -8.6756618    0.3310147    174.54097            0 
  889000       888998    50.011142   0.96840478     16896735 0.0015766375    165.25111    910.47062   -9.6726341   0.29958401    174.62416            0 
  889500       889498    49.988098   0.99247258     16860898 0.0015799886    164.35753    909.23364   -10.470613   0.29984777    174.52829            0 
  890000       889998    49.950347    1.0159977     16839919 0.0015819569     163.6432    907.95678   -11.087583   0.32237165    174.40841            0 
  890500       890498     49.96761    1.0321437     16822600 0.0015835855    163.81218      908.383   -10.842379   0.31232741    174.34223            0 
  891000       890998    50.015529   0.99307838     16812595 0.0015845279     162.9286    908.21347   -11.725451   0.31991152    174.33414            0 
  891500       891498    49.959197    1.0124627     16795155 0.0015861733    164.26935    908.71481    -10.68198    0.3029167    174.64841            0 
  892000       891998     49.97728    1.0392932     16762229  0.001589289     163.5503    908.26523   -11.201174   0.32091872    174.43056            0 
  892500       892498    49.992336    1.0029799     16771790  0.001588383    163.62826    908.56752   -11.109216   0.30284064    174.43463            0 
  893000       892998     49.99474    1.0076522     16790442 0.0015866185    165.56988    910.54497   -9.2288696   0.29967899    174.49907            0 
  893500       893498    49.926245    1.0511277     16795578 0.0015861333    166.94115     910.8956   -7.8923326    0.3250897     174.5084            0 
  894000       893998    49.977331    1.0269021     16820812 0.0015837539    165.65603    910.37171   -9.1181483   0.29200867    174.48217            0 
  894500       894498    49.953876    1.0405516     16838598  0.001582081    165.24793    909.61411   -9.5090777   0.31241952    174.44459            0 
  895000       894998    50.072158    1.0023968     16852505 0.0015807755    164.22133    910.35004   -10.449695   0.31777209    174.35325            0 
  895500       895498     49.94825    1.0477036     16852310 0.0015807937     164.1108    908.39314   -10.666578   0.29624965    174.48113            0 
  896000       895998     49.99623   0.99759987     16878015 0.0015783862    163.20726    908.20456   -11.552318   0.31238508    174.44719            0 
  896500       896498    49.904351    1.0214245     16884224 0.0015778058    164.00488    907.63308   -10.973117    0.3132355    174.66476            0 
  897000       896998    50.028411    1.0008569     16877484 0.0015784359    164.85143    910.32826   -9.8419814   0.30005505    174.39336            0 
  897500       897498    49.935518    1.0301712     16845795 0.0015814051    164.02921    908.12183   -10.651579   0.31376439    174.36703            0 
  898000       897998    49.979101    1.0035807     16853330  0.001580698    165.39793    910.13998   -9.3844924   0.30709304    174.47532            0 
  898500       898498    50.017859    1.0189893     16847827 0.0015812143    165.87994    911.19953   -8.9744577   0.30866392    174.54574            0 
  899000       898998    49.929741    1.0517023     16838601 0.0015820807    164.71411    908.72066   -10.259316   0.33520182    174.63823            0 
  899500       899498    49.982635    1.0043631     16894769  0.001576821    164.00517    908.79988   -10.766014   0.31727041    174.45391            0 
  900000       899998    50.088039   0.97503167     16927739 0.0015737498    163.06651    909.43185   -11.588526   0.31072664    174.34431            0 
  900500       900498    49.974563    0.9997239     16924887  0.001574015    163.85072    908.52516   -10.966919   0.29329355    174.52435            0 
  901000       900998    49.998158   0.99533851     16952578 0.0015714439    165.26581    910.29183   -9.7394221   0.31325696    174.69198            0 
  901500       901498    50.037353   0.97549507     16966482 0.0015701561    165.07614     910.6862   -9.7204678   0.30440995     174.4922            0 
  902000       901998    50.020082   0.97078401     16961246 0.0015706409    166.02957    911.38229   -8.6096447   0.29812286    174.34109            0 
  902500       902498    50.026945   0.98215882     16950776 0.0015716109    165.03483    910.48981   -9.7773223   0.32824132    174.48392            0 
  903000       902998    50.005816   0.97650305     16950980 0.0015715921    166.18221    911.32234   -8.8056897   0.31236439    174.67553            0 
  903500       903498    50.060875   0.97828734     16878316  0.001578358    163.62111    909.58169   -11.168147   0.29843445    174.49083            0 
  904000       903998    49.970436   0.94943895     16877290  0.001578454     164.0852    908.69814   -10.617099   0.30419641     174.3981            0 
  904500       904498    49.982889     1.000022     16888711 0.0015773866    164.18676    908.98526   -10.500503   0.33291409    174.35435            0 
  905000       904998    49.988777   0.96202452     16923853 0.0015741111     165.2677    910.15393   -9.5388391   0.32259385    174.48394            0 
  905500       905498    49.985993   0.99179257     16909700 0.0015754286    165.16442    910.00917   -9.7857708   0.31190031    174.63829            0 
  906000       905998    49.977378   0.98606025     16925745 0.0015739352    166.10753    910.82391   -8.7090577   0.31616018    174.50042            0 
  906500       906498    49.998191   0.96908255     16942208 0.0015724058    166.57975    911.60626   -8.2116074   0.30561053    174.48574            0 
  907000       906998     49.97248    1.0117005     16930982 0.0015734483    165.74822    910.39162   -9.0569278   0.30802892    174.49711            0 
  907500       907498    50.001504   0.99990657     16944634 0.0015721806    166.30236    911.37824    -8.581387   0.32717341    174.55657            0 
  908000       907998    50.024109   0.98215939     16941980  0.001572427    163.83898     909.2517   -10.971446   0.31846331    174.49197            0 
  908500       908498    49.999611    1.0013624     16931687 0.0015733828    165.85861    910.90628   -8.8710074   0.30720393    174.42241            0 
  909000       908998     50.03202   0.99748411     16912035 0.0015752111    164.98325    910.51386   -9.8029747   0.32041316    174.46581            0 
  909500       909498    49.949235     1.031165     16917478 0.0015747044    166.01209    910.30912   -9.0039052   0.31787645    174.69812            0 
  910000       909998    49.977985   0.99770342     16936879 0.0015729005    165.82445    910.54987   -8.9967449   0.29926013    174.52193            0 
  910500       910498    49.977161     1.018523     16922550 0.0015742324    165.16859    909.88173    -9.669598   0.33142864    174.50676            0 
  911000       910998    50.019903   0.98028001     16910708 0.0015753348    164.51969    909.86974    -10.12857   0.32202843    174.32623            0 
  911500       911498    50.047174    1.0470692     16886550 0.0015775884     160.9823    906.73871   -13.804051   0.31914854     174.4672            0 
  912000       911998     49.93337   0.99514876     16935591 0.0015730201    165.21639      909.277   -9.7154018   0.29453299    174.63725            0 
  912500       912498    50.014465    1.0184838     16890046 0.0015772619    163.43875    908.70776   -11.519516   0.31576029     174.6425            0 
  913000       912998    50.030315     1.004053     16856365 0.0015804135    163.00768    908.51288   -11.658599   0.29977688     174.3665            0 
  913500       913498    50.020524   0.99750036     16843459 0.0015816244    164.91908    910.27839   -9.7446861   0.30714238    174.35663            0 
  914000       913998    49.909179    1.0650125     16818642 0.0015839582    164.71389    908.41403   -10.415987   0.34862127    174.78126            0 
  914500       914498    49.996931    1.0299669     16837255 0.0015822072    163.71915    908.72688   -11.187607   0.29395405     174.6128            0 
  915000       914998    50.024493    1.0097416     16849342 0.0015810722     163.9245    909.34294   -10.869566   0.29629742    174.49777            0 
  915500       915498    50.042415   0.98747862     16831647 0.0015827344    163.02216    908.70766   -11.634137   0.31814986    174.33815            0 
  916000       915998    50.005516    1.0082748     16792385  0.001586435    163.41193     908.5476   -11.198976   0.29603687    174.31487            0 
  916500       916498    50.064924    1.0234816     16729857 0.0015923642    163.11405    909.13496   -11.721958   0.30216552    174.53385            0 
  917000       916998    50.015203    1.0094156     16670225 0.0015980604    161.59729     906.8773   -13.352485   0.32585359    174.62392            0 
  917500       917498    50.026442    1.0089255     16669234 0.0015981553    161.88515    907.33264   -12.985342   0.30366207    174.56683            0 
  918000       917998    50.008787     1.015011     16711055 0.0015941558    163.64702    908.83143   -11.069881   0.30015762    174.41675            0 
  918500       918498    50.015893     0.997712     16756623 0.0015898207    163.51692    908.80721   -11.308914   0.30833902    174.51749            0 
  919000       918998    50.019464   0.97283013     16794763 0.0015862103    164.69689     910.0404   -9.9218119   0.30200674     174.3167            0 
  919500       919498    49.983903    1.0216987     16814295 0.0015843677    165.11759    909.93121   -9.6438056   0.29201744    174.46938            0 
  920000       919998    49.981314    1.0341744     16836410 0.0015822866    166.57397      911.349   -8.3558316   0.34314721    174.58665            0 
  920500       920498    49.956323     1.035716     16824009 0.0015834529    166.17289    910.57554   -8.8764349    0.3287262     174.7206            0 
  921000       920998    50.024515    1.0318117     16807733 0.0015849863    164.93536    910.35413   -9.9861217   0.30047108    174.62101            0 
  921500       921498    50.051003    1.0243387     16801728 0.0015855527    164.08018    909.89366   -10.687987   0.32445096    174.44372            0 
  922000       921998    49.995423   0.97804544     16824564 0.0015834007    167.38093    912.36619   -7.4261316   0.30927691    174.49778            0 
  922500       922498    50.059087   0.98673843     16796780 0.0015860198    166.25402    912.18795   -8.5593437   0.30098844    174.51238            0 
  923000       922998    49.983368   0.97869294     16802484 0.0015854814    165.91717     910.7228   -8.9189469   0.32494023    174.51117            0 
  923500       923498     50.02953    1.0015428     16805237 0.0015852216    164.62493    910.11844   -10.267024   0.32604174    174.56592            0 
  924000       923998    50.013414   0.95206473     16819379 0.0015838888    165.33513    910.58848   -9.4733138   0.30407858    174.50436            0 
  924500       924498    50.008572   0.97377673     16789212 0.0015867347    165.99323    911.17444   -8.7984577   0.31518913     174.4765            0 
  925000       924998    50.015004   0.96254671     16749575 0.0015904897    166.99305     912.2701   -7.9016833   0.32147484    174.57326            0 
  925500       925498    50.014141    1.0078246     16672141 0.0015978767    165.50281    910.76699   -9.4487765   0.30978737     174.6418            0 
  926000       925998    49.929211    1.0046495     16667310 0.0015983398    164.47144    908.47008   -10.246671    0.3362367    174.38187            0 
  926500       926498    50.040672   0.99876125     16712484 0.0015940195     164.7755    910.43503   -10.057942   0.33102213    174.50242            0 
  927000       926998    49.974502   0.99703592     16755151 0.0015899603    165.01017    909.68369   -9.8502155   0.31132768    174.54906            0 
  927500       927498    50.018751   0.97949565     16799337 0.0015857784    164.80557    910.13845   -10.273767    0.3116728    174.76766            0 
  928000       927998    49.979258   0.97441818     16829558 0.0015829308    165.22328    909.96767   -9.7621975   0.33020651    174.65527            0 
  928500       928498    50.013954   0.97368347     16840884 0.0015818663    165.22254    910.48394   -9.6317689    0.3178378    174.53647            0 
  929000       928998    50.002478   0.99338898     16844635  0.001581514    164.64937    909.73977   -10.208883     0.309244    174.54901            0 
  929500       929498    50.091591   0.93797276     16830111 0.0015828788      163.029    909.44728   -11.801692   0.32935951    174.50133            0 
  930000       929998    50.067329   0.97256557     16803563 0.0015853796    161.14271    907.19945   -13.764697   0.32277761    174.58463            0 
  930500       930498    49.951848   0.97650288     16804759 0.0015852667    163.29647    907.63243   -11.574636   0.30580719     174.5653            0 
  931000       930998    50.015808   0.98892544     16785922 0.0015870457    163.09356     908.3826   -11.822326   0.32805628    174.58783            0 
  931500       931498     50.03272   0.97951141     16793032 0.0015863737     162.8777    908.41873   -12.222989   0.32050401    174.78019            0 
  932000       931998    50.056472   0.97379867     16794399 0.0015862446    163.77462    909.66958    -11.04991   0.31712035    174.50741            0 
  932500       932498    49.997238    0.9863175     16792045  0.001586467    163.75552    908.76783   -11.096649   0.29948928    174.55268            0 
  933000       932998    49.990365     1.009132     16796179 0.0015860766    164.52518    909.43507   -10.372044   0.32159268    174.57563            0 
  933500       933498    49.958974   0.99178721     16819465 0.0015838807    165.72051    910.16265   -9.0997523   0.30644278    174.51382            0 
  934000       933998    50.019955   0.98973908     16812186 0.0015845664    165.04243    910.39325    -9.800611   0.32129968    174.52174            0 
  934500       934498    49.999717    1.0177109     16776626 0.0015879251    163.73812    908.78737   -11.297468   0.33082149    174.70477            0 
  935000       934998    50.019333    0.9981563     16753430 0.0015901237    163.14171    908.48326   -11.883161    0.3120816    174.71279            0 
  935500       935498    49.993219    1.0074092     16759744 0.0015895246     163.6229    908.57533   -11.292058   0.30216908    174.61279            0 
  936000       935998    50.009022    1.0342319     16764931 0.0015890328    163.49151    908.67942   -11.489214   0.34192993    174.63879            0 
  936500       936498    49.991752    1.0136544     16811219 0.0015846576    164.09028    909.02084   -10.669572   0.29551475    174.46434            0 
  937000       936998     50.02234   0.98852525     16873997 0.0015787621    165.88878    911.27514   -8.8478139   0.30180046    174.43479            0 
  937500       937498    49.961957    1.0296599     16914600 0.0015749723    163.54852     908.0351   -11.419776   0.32903021    174.63926            0 
  938000       937998    49.960686    1.0192877     16995749 0.0015674523    164.35804    908.82568   -10.714777   0.31595941    174.75686            0 
  938500       938498    49.942304    1.0095746     17026833 0.0015645907    164.47908    908.67282   -10.626584    0.3117581    174.79391            0 
  939000       938998     50.04558    1.0031887     17021594 0.0015650723    164.28825    910.02091   -10.633368   0.31094429    174.61067            0 
  939500       939498    49.977491    1.0543319     16983144 0.0015686157    162.55999    907.27805   -12.488107   0.31729667     174.7308            0 
  940000       939998    50.013639   0.99040427     16968961 0.0015699268     163.5246     908.7813   -11.310369   0.30743072    174.52754            0 
  940500       940498    50.032244   0.99597339     16898917 0.0015764339    162.69682    908.23075   -12.215509   0.31739124    174.59493            0 
  941000       940998    50.002094    1.0228635     16855476 0.0015804968    161.82722    906.91189   -13.136078   0.32451941    174.63878            0 
  941500       941498    49.940671    1.0424472     16845903  0.001581395    163.57929    907.74869   -11.453371   0.31288324    174.71978            0 
  942000       941998    49.982496    1.0168718     16836467 0.0015822812    165.20124    909.99388   -9.7557663   0.33234849    174.62466            0 
  942500       942498    49.989391    1.0068527     16804448 0.0015852961    164.61355    909.50894   -10.358211   0.32428175    174.64748            0 
  943000       942998    50.010587   0.99822921     16758713 0.0015896224    162.41443    907.62566   -12.601185   0.31195427    174.70366            0 
  943500       943498     50.01708   0.96816169     16779844 0.0015876206    164.03641     909.3444   -10.860716   0.31002828     174.5871            0 
  944000       943998    50.020711   0.98879778     16789715 0.0015866872      164.255    909.61708   -10.713532   0.32365657    174.64487            0 
  944500       944498    49.993073    1.0229277     16806404 0.0015851116    162.06613    907.01638   -12.931109   0.31415375    174.68308            0 
  945000       944998    49.990323   0.99235023     16845457 0.0015814369    163.21146    908.12074   -11.578616   0.31852092    174.47156            0 
  945500       945498     50.02379   0.98675556     16834381 0.0015824773    165.14498    910.55295   -9.8116746   0.33298999    174.62366            0 
  946000       945998     49.99127   0.97551049     16798226 0.0015858833    165.54404    910.46744    -9.371442    0.3211403    174.59435            0 
  946500       946498    50.049197     1.006768     16738663 0.0015915265    163.74594     909.5325    -11.26023    0.3162426    174.68993            0 
  947000       946998    49.951947   0.98657139     16756844 0.0015897997    164.97649    909.31393   -10.112582   0.33336116    174.75572            0 
  947500       947498     49.95325    1.0207688     16771774 0.0015883845     165.5339    909.89074   -9.4387803   0.31241581    174.66026            0 
  948000       947998    49.980836    1.0112087     16809281 0.0015848403    165.13865    909.90655   -9.8983352   0.33052416    174.70646            0 
  948500       948498    50.000686   0.99578857     16835723 0.0015823512    166.47996    911.54366   -8.5553103   0.34073916    174.69453            0 
  949000       948998    50.027296   0.98700042     16819380 0.0015838887    164.35746    909.81767   -10.524967   0.30517852    174.57725            0 
  949500       949498    49.910079    1.0327681     16810011 0.0015847715    164.69741    908.41097   -10.336572   0.33765776    174.69632            0 
  950000       949998     50.02213   0.97139254     16818244 0.0015839957    162.97168    908.35492   -12.012787   0.32403174    174.66043            0 
  950500       950498    49.991122    1.0006392     16831513  0.001582747    164.03769    908.95886   -10.991535    0.3026746    174.72655            0 
  951000       950998    50.015537   0.97411952     16870639 0.0015790763     165.5286    910.81359   -9.5807956   0.32873266    174.78067            0 
  951500       951498    50.003339   0.96768991     16924697 0.0015740327     164.9435    910.04672   -10.082081   0.32544068    174.70014            0 
  952000       951998    50.006484   0.99806922     16960208  0.001570737     166.3002    911.45029    -8.744545   0.31350909    174.73124            0 
  952500       952498    50.006844   0.96200144     16975850 0.0015692896    165.72574     910.8812   -9.3535882   0.32088097    174.75845            0 
  953000       952998     50.03085   0.96267515     16958392 0.0015709051    164.98802    910.50119   -9.9635652   0.31334295    174.63824            0 
  953500       953498    49.975809    1.0087347     16953950 0.0015713168    164.13061    908.82361   -10.784867   0.31932059    174.59616            0 
  954000       953998     50.00266   0.98975347     16986232 0.0015683305    165.53427    910.62738   -9.4583744   0.32196924    174.67067            0 
  954500       954498    49.991305    1.0077027     16985707  0.001568379    161.52104    906.44495   -13.457155   0.30662503    174.67157            0 
  955000       954998    49.994518   0.99585862     16972815 0.0015695702    161.99828    906.97007   -13.062888   0.31203643    174.74914            0 
  955500       955498    50.052503   0.96183729     16924056 0.0015740923    161.77251    907.60834   -13.320573   0.30170504    174.79137            0 
  956000       955998     49.99543    1.0043443     16868352 0.0015792904    160.14328    905.12865   -14.814093   0.29484077    174.66253            0 
  956500       956498    49.970417    1.0432787     16846252 0.0015813622      162.766    907.37866   -12.197644   0.31440915    174.64923            0 
  957000       956998    49.981286    1.0243137     16828475 0.0015830327    164.25652    909.03114   -10.727694   0.32854654    174.65566            0 
  957500       957498    49.985392    1.0483068     16781309  0.001587482    161.50243    906.33822   -13.375421   0.30312277    174.57472            0 
  958000       957998    49.981131    1.0049392     16808169 0.0015849452    165.74671    910.51902   -9.3061426   0.30970145    174.74315            0 
  958500       958498    50.008111     1.043009     16780150 0.0015875916    162.03008    907.20441   -13.012312   0.30634924    174.73604            0 
  959000       958998     49.94724    1.0293017     16813560 0.0015844369    163.11539    907.38269   -11.972509   0.30682429    174.78108            0 
  959500       959498    49.949842    1.0320846     16838297 0.0015821093    163.22023    907.52629   -11.903211   0.32028263    174.80316            0 
  960000       959998    50.009072   0.98921438     16863688 0.0015797271    162.63542    907.82407   -12.293834   0.31763809    174.61161            0 
  960500       960498    50.000055    1.0206762     16853887 0.0015806458     161.5567    906.61099    -13.49547   0.30143729    174.75073            0 
  961000       960998    49.963416   0.98986797     16834569 0.0015824596    164.13681    908.64513   -10.858901   0.32425259    174.67146            0 
  961500       961498    50.025548     1.021897     16789416 0.0015867155    160.60027    906.03444   -14.348064   0.31134571    174.63699            0 
  962000       961998    49.989354   0.99065706     16818105 0.0015840088    161.85382    906.74865   -13.057213    0.3134816    174.59755            0 
  962500       962498    49.999115    1.0250478     16805505 0.0015851964    162.11056    907.15084   -12.988974   0.32235035    174.77718            0 
  963000       962998    50.012276    1.0031013     16798797 0.0015858293    163.54566    908.78206   -11.626107     0.300451    174.87132            0 
  963500       963498    50.008231   0.99480815     16791325  0.001586535     161.7551    906.93122   -13.259438   0.31326757    174.70127            0 
  964000       963998    50.014981   0.98489828     16767234 0.0015888145    162.17995    907.45666   -12.677362   0.31757164    174.53974            0 
  964500       964498    50.013587   0.98338416     16770881 0.0015884691    163.37931    908.63524   -11.491386   0.31475599    174.55594            0 
  965000       964998     50.00094    1.0386267     16772834 0.0015882841    161.96235    907.02982    -13.12437   0.32105162    174.76567            0 
  965500       965498    50.017829    1.0077951     16825413 0.0015833208    163.77911    909.09825   -11.198128    0.3199214    174.65732            0 
  966000       965998    49.973864    1.0001794     16840107 0.0015819392    165.07589     909.7399   -9.9188275   0.31887066    174.67584            0 
  966500       966498    50.004949     1.008789     16828446 0.0015830354    163.69278    908.82001   -11.313269   0.30495135     174.7011            0 
  967000       966998    49.951916     1.018909     16872168 0.0015789332    163.54454    907.88151   -11.544258   0.33452387    174.75428            0 
  967500       967498    49.957829   0.98194532     16939578 0.0015726499    164.05264    908.47772   -11.170539   0.30615664    174.91702            0 
  968000       967998    49.979613   0.98646214     16960320 0.0015707266    165.79985    910.54953   -9.1641794    0.3098457    174.65418            0 
  968500       968498    50.025491   0.97582873     16965548 0.0015702426    163.54172    908.97503   -11.367034    0.3238528     174.5849            0 
  969000       968998    50.014331   0.99203304     16966762 0.0015701302    164.04686    909.31388    -10.95532   0.32307548    174.67911            0 
  969500       969498    49.997359   0.96061073     16978950 0.0015690032    165.56875    910.58286   -9.4333405    0.3171576    174.68493            0 
  970000       969998    50.009312   0.95209412     16967343 0.0015700764    165.52628    910.71851   -9.6248685   0.31366575    174.83748            0 
  970500       970498    50.025112   0.96134739     16936251 0.0015729588    165.48331    910.91097   -9.6932237   0.31119618    174.86534            0 
  971000       970998    49.975086    1.0027859     16881847 0.0015780279    164.62299    909.30522    -10.49709   0.32790472    174.79218            0 
  971500       971498    49.954527   0.98978438     16840676 0.0015818857     164.9087    909.28458    -10.18845    0.3333908    174.76376            0 
  972000       971998    49.972736    1.0091993     16831738 0.0015827258    165.64787    910.29509   -9.4600486   0.31884029    174.78908            0 
  972500       972498    49.986008   0.97616773     16860750 0.0015800024    165.19983    910.04481   -9.7463466   0.33485838    174.61132            0 
  973000       972998    49.977664   0.98317791     16901711 0.0015761733    165.27834    909.99898   -9.6044166   0.31636603    174.56639            0 
  973500       973498    50.004393   0.95659295     16968878 0.0015699345    165.96963    911.08856   -9.1322757   0.30093461    174.80097            0 
  974000       973998    49.942061   0.98448922     16988904 0.0015680838    167.15979     911.3499   -8.0991748   0.34049354    174.91847            0 
  974500       974498    49.913829    1.0189544     16969910  0.001569839    166.45392    910.22335   -8.7286751   0.33080828    174.85179            0 
  975000       974998      50.0492    1.0065801     16957692   0.00157097    164.62263    910.40923   -10.387862   0.32601114    174.68448            0 
  975500       975498    50.015874   0.96563562     16947154 0.0015719469    163.14005    908.43007     -11.8827   0.33395742     174.6888            0 
  976000       975998    49.979266   0.97536918     16919773 0.0015744907    162.24033    906.98484   -12.737484   0.29883899    174.67897            0 
  976500       976498    50.027649   0.98605233     16881087  0.001578099    163.35251    908.81798   -11.715144    0.3216794    174.74598            0 
  977000       976998    50.027141   0.96792308     16815061 0.0015842955    161.56684    907.02474   -13.431013   0.32215473     174.6757            0 
  977500       977498    50.046227   0.99030634     16775127 0.0015880671    159.76552    905.50782   -15.219194   0.31629288    174.66842            0 
  978000       977998    50.028069   0.97225562     16777221 0.0015878688    162.64065    908.11238   -12.365994   0.33408866    174.67256            0 
  978500       978498    50.018169   0.98381227     16750573 0.0015903949    163.68306    909.00727   -11.400892   0.30593697    174.77801            0 
  979000       978998    49.982377    1.0061843     16746805 0.0015907527    162.79293     907.5838   -12.335233   0.30997403    174.81819            0 
  979500       979498    50.009759   0.99828407     16791501 0.0015865184    162.39828    907.59718   -12.626757   0.33743356    174.68761            0 
  980000       979998    50.010711    1.0401011     16827378 0.0015831359    163.06196    908.27504   -11.990746   0.30356468    174.74914            0 
  980500       980498    49.955299     1.050469     16899846 0.0015763473    165.86716    910.25453   -9.1485004   0.33292635    174.68273            0 
  981000       980998     49.93688    1.0105155     16973642 0.0015694938     166.7374    910.85032   -8.3881843   0.33128082     174.7943            0 
  981500       981498    50.058455    0.9943535     16979135 0.0015689861    165.20783    911.13235   -9.6555066   0.30707194    174.55626            0 
  982000       981998     50.00023    1.0036469     16969831 0.0015698463    167.27455    912.33144   -7.9632456   0.32616794    174.91162            0 
  982500       982498    49.964707    1.0425357     16900171 0.0015763169    166.20937    910.73694   -9.0901109   0.32646698    174.97301            0 
  983000       982998    50.003663    0.9649159     16869936 0.0015791421    165.73619    910.84424   -9.1315745   0.31984951    174.54792            0 
  983500       983498    49.985809    1.0317533     16804169 0.0015853225    166.57661    911.41863   -8.5501014    0.3182716    174.80844            0 
  984000       983998    50.046784    1.0346686     16755343 0.0015899421    164.62639      910.377   -10.558823   0.30559623    174.87962            0 
  984500       984498    49.958055    1.0338081     16733681 0.0015920004    166.23068    910.65913    -8.849457   0.32781178    174.75233            0 
  985000       984998    49.937691     1.080737     16695752  0.001595617    164.50503    908.63003   -10.510472   0.31934824    174.69615            0 
  985500       985498    49.948801    1.0578109     16711126  0.001594149    165.40348    909.69404   -9.7820234   0.32094359    174.86456            0 
  986000       985998    50.026471    1.0156313     16740846 0.0015913189    165.48663    910.93455   -9.6859604    0.3049205    174.86767            0 
  986500       986498    49.983831    1.0257043     16773295 0.0015882405    165.27834    910.09088   -9.8893803   0.31935068    174.84837            0 
  987000       986998    50.009897    1.0105142     16823453 0.0015835052    164.53621    909.73716   -10.459543   0.31480947    174.68095            0 
  987500       987498    50.020493    1.0286092     16835681 0.0015823551    163.44045    908.79929   -11.470038   0.31227379    174.59821            0 
  988000       987998    50.023937    1.0003525     16844781 0.0015815003    162.52944    907.93961   -12.523173   0.32262692    174.72999            0 
  988500       988498    49.982012   0.98735939     16884705 0.0015777608    165.88328    910.66872   -9.4170289    0.3073332    174.99298            0 
  989000       988998    49.967589   0.99309489     16888914 0.0015773676    165.53654    910.10706   -9.7784504   0.30266052    175.01233            0 
  989500       989498    50.026297   0.97981145     16883295 0.0015778926    164.66847    910.11379   -10.288902   0.31842035    174.63895            0 
  990000       989998     50.05849    0.9955349     16813071  0.001584483    160.89632    906.82136    -13.98734    0.3149173    174.56874            0 
  990500       990498     50.01824   0.96259118     16749183 0.0015905269    161.24354    906.56882   -13.792538   0.33459327    174.70149            0 
  991000       990998    49.968956    1.0084079     16687283 0.0015964268    162.68242    907.27331   -12.477607   0.31302358      174.847            0 
  991500       991498    50.029332    0.9718704     16670991 0.0015979869    162.53059    908.02114   -12.540829    0.3074725    174.76395            0 
  992000       991998    50.032977   0.96575088     16683460 0.0015967927    163.78856    909.33342   -11.246338    0.3229463    174.71195            0 
  992500       992498    50.034462    1.0031114     16677668 0.0015973471    163.10262    908.66962   -11.896097   0.30637812    174.69234            0 
  993000       992998    50.025222   0.98631674     16737015 0.0015916832    162.57567    908.00497   -12.617772   0.33020076    174.86324            0 
  993500       993498    50.013647   0.97839167     16790722 0.0015865921    164.13116    909.38799   -11.112581   0.33381373    174.90993            0 
  994000       993998    50.028137    0.9592123     16809661 0.0015848044    164.72907    910.20181   -10.319324   0.31482978    174.73356            0 
  994500       994498     50.04754   0.95361903     16783193 0.0015873038    164.86824    910.63011   -10.141174   0.33043402    174.67898            0 
  995000       994998    50.040361   0.95131032     16756095 0.0015898708    164.51406    910.16894   -10.509591   0.31049784    174.71315            0 
  995500       995498    49.999784   0.97245436     16724263 0.0015928968    165.21218    910.26243   -9.9544549    0.3381198    174.82851            0 
  996000       995998    49.960769     1.001975     16682767 0.0015968589     164.7068    909.17569   -10.604436   0.32949681    174.98174            0 
  996500       996498    50.000279   0.96726549     16673698 0.0015977276    167.00773    912.06535   -8.0832733   0.31970221     174.7713            0 
  997000       996998    49.997209   0.98967837     16667856 0.0015982875    166.40836    911.42025   -8.6984161   0.35037826    174.75639            0 
  997500       997498    49.985819   0.99822638     16708995 0.0015943524    167.77418    912.61633   -7.2689057   0.32404912    174.71903            0 
  998000       997998    50.017205    1.0114328     16773700 0.0015882021    165.69304    911.00289   -9.3218946   0.32708136    174.68786            0 
  998500       998498    50.032861   0.95593311     16871152 0.0015790283    167.69286      913.236   -7.4894735   0.33801836    174.84432            0 
  999000       998998    50.035868   0.96691289     16887434 0.0015775058    167.78987    913.37781   -7.4344256   0.31268098    174.91161            0 
  999500       999498    50.009784   0.97145637     16888733 0.0015773845    167.47529    912.67455   -7.5543592   0.32590994    174.70374            0 
 1000000       999998    50.014954   0.96099053     16885006 0.0015777327    168.24465    913.52095   -6.7514575   0.33469657    174.66141            0 
 1000002      1000000    50.004262   0.95225819     16884821   0.00157775    168.33903    913.45602   -6.8105075   0.32442631    174.82511            0 
Loop time of 2891.51 on 8 procs for 1000000 steps with 5000 atoms

Performance: 29.881 ns/day, 0.803 hours/ns, 345.840 timesteps/s
100.0% CPU use with 8 MPI tasks x no OpenMP threads

MPI task timing breakdown:
Section |  min time  |  avg time  |  max time  |%varavg| %total
---------------------------------------------------------------
Pair    | 100.98     | 102.52     | 103.79     |   8.1 |  3.55
Bond    | 83.379     | 84.44      | 85.689     |   9.0 |  2.92
Kspace  | 527.6      | 529.46     | 531.57     |   6.4 | 18.31
Neigh   | 9.4908     | 9.5058     | 9.5198     |   0.3 |  0.33
Comm    | 21.5       | 236.45     | 272.02     | 529.0 |  8.18
Output  | 0.93338    | 0.93361    | 0.93376    |   0.0 |  0.03
Modify  | 1124.9     | 1267.5     | 2134.1     | 921.0 | 43.84
Other   |            | 660.7      |            |       | 22.85

Nlocal:        625.000 ave         696 max         550 min
Histogram: 1 1 0 0 0 4 0 0 1 1
Nghost:        451.500 ave         506 max         395 min
Histogram: 1 0 1 1 1 1 1 1 0 1
Neighs:        2082.38 ave        2372 max        1924 min
Histogram: 2 2 0 0 2 0 1 0 0 1

Total # of neighbors = 16659
Ave neighs/atom = 3.3318000
Ave special neighs/atom = 4.0000000
Neighbor list builds = 26732
Dangerous builds = 0

write_data   system_after_npt.data
System init for write_data ...
PPPM initialization ...
  using 12-bit tables for long-range coulomb (../kspace.cpp:340)
  G vector (1/distance) = 0.072053236
  grid = 15 15 15
  stencil order = 5
  estimated absolute RMS force accuracy = 0.03744523
  estimated relative force accuracy = 0.0001127652
  using double precision KISS FFT
  3d grid and FFT values/proc = 2197 512
Total wall time: 0:48:12
