LAMMPS (7 Jan 2022)

# ------------------------------- Initialization Section --------------------

include      "system.in.init"        # specify the style of force field used
  atom_style full
  units real
  bond_style harmonic
  angle_style harmonic
  dihedral_style opls
  improper_style harmonic
  pair_style lj/cut/coul/long 11.0 11.0
  pair_modify mix geometric
  special_bonds lj/coul 0.0 0.0 0.5
  kspace_style pppm 0.0001

# ------------------------------- Atom Definition Section -------------------

read_data    "system.data"
Reading data file ...
  orthogonal box = (0 0 0) to (103.5 103.5 103.5)
  1 by 1 by 1 MPI processor grid
  reading atoms ...
  5000 atoms
  scanning bonds ...
  4 = max bonds/atom
  scanning angles ...
  6 = max angles/atom
  reading bonds ...
  4000 bonds
  reading angles ...
  6000 angles
Finding 1-2 1-3 1-4 neighbors ...
  special bond factors lj:    0        0        0.5     
  special bond factors coul:  0        0        0.5     
     4 = max # of 1-2 neighbors
     3 = max # of 1-3 neighbors
     3 = max # of 1-4 neighbors
     4 = max # of special neighbors
  special bonds CPU = 0.001 seconds
  read_data CPU = 0.013 seconds

# ------------------------------- Settings Section --------------------------

include      "system.in.settings"    # load the force field parameters
  pair_coeff 1 1 0.066 3.5
  pair_coeff 2 2 0.03 2.5
  bond_coeff 1 340.0 1.09
  angle_coeff 1 33.0 107.8
  set type 1 charge -0.24
Setting atom values ...
  1000 settings made for charge
  set type 2 charge 0.06
Setting atom values ...
  4000 settings made for charge
include      "system.in.charges"     # load the charge of each atom
  set type 1 charge -0.24
Setting atom values ...
  1000 settings made for charge
  set type 2 charge 0.06
Setting atom values ...
  4000 settings made for charge

# ------------------------------- Run Section -------------------------------


# -- minimization protocol --

thermo          500
minimize	1.0e-4 1.0e-6 100000 400000
WARNING: Using 'neigh_modify every 1 delay 0 check yes' setting during minimization (../min.cpp:187)
PPPM initialization ...
  using 12-bit tables for long-range coulomb (../kspace.cpp:340)
  G vector (1/distance) = 0.13982374
  grid = 15 15 15
  stencil order = 5
  estimated absolute RMS force accuracy = 0.025711481
  estimated relative force accuracy = 7.7429363e-05
  using double precision KISS FFT
  3d grid and FFT values/proc = 8000 3375
  generated 1 of 1 mixed pair_coeff terms from geometric mixing rule
Neighbor list info ...
  update every 1 steps, delay 0 steps, check yes
  max neighbors/atom: 2000, page size: 100000
  master list distance cutoff = 13
  ghost atom cutoff = 13
  binsize = 6.5, bins = 16 16 16
  1 neighbor lists, perpetual/occasional/extra = 1 0 0
  (1) pair lj/cut/coul/long, perpetual
      attributes: half, newton on
      pair build: half/bin/newton
      stencil: half/bin/3d
      bin: standard
Per MPI rank memory allocation (min/avg/max) = 10.85 | 10.85 | 10.85 Mbytes
Step Temp E_pair E_mol TotEng Press 
       0            0    13.473059    169.81587    183.28893    62.917711 
       2            0     13.46648    168.45644    181.92292    1.7188027 
Loop time of 0.0187784 on 1 procs for 2 steps with 5000 atoms

100.0% CPU use with 1 MPI tasks x no OpenMP threads

Minimization stats:
  Stopping criterion = energy tolerance
  Energy initial, next-to-last, final = 
      183.288930481478   181.923003048622   181.922915101734
  Force two-norm initial, final = 43.104107 0.12623321
  Force max component initial, final = 0.68269501 0.0017082284
  Final line search alpha, max atom move = 1 0.0017082284
  Iterations, force evaluations = 2 4

MPI task timing breakdown:
Section |  min time  |  avg time  |  max time  |%varavg| %total
---------------------------------------------------------------
Pair    | 0.0079308  | 0.0079308  | 0.0079308  |   0.0 | 42.23
Bond    | 0.0016493  | 0.0016493  | 0.0016493  |   0.0 |  8.78
Kspace  | 0.008791   | 0.008791   | 0.008791   |   0.0 | 46.81
Neigh   | 0          | 0          | 0          |   0.0 |  0.00
Comm    | 0.00011057 | 0.00011057 | 0.00011057 |   0.0 |  0.59
Output  | 0          | 0          | 0          |   0.0 |  0.00
Modify  | 0          | 0          | 0          |   0.0 |  0.00
Other   |            | 0.0002967  |            |       |  1.58

Nlocal:           5000 ave        5000 max        5000 min
Histogram: 1 0 0 0 0 0 0 0 0 0
Nghost:           5985 ave        5985 max        5985 min
Histogram: 1 0 0 0 0 0 0 0 0 0
Neighs:          90000 ave       90000 max       90000 min
Histogram: 1 0 0 0 0 0 0 0 0 0

Total # of neighbors = 90000
Ave neighs/atom = 18
Ave special neighs/atom = 4
Neighbor list builds = 0
Dangerous builds = 0

# Optional: write the coordinates after minimization
write_data  	system_after_min.data
System init for write_data ...
PPPM initialization ...
  using 12-bit tables for long-range coulomb (../kspace.cpp:340)
  G vector (1/distance) = 0.13982374
  grid = 15 15 15
  stencil order = 5
  estimated absolute RMS force accuracy = 0.025711481
  estimated relative force accuracy = 7.7429363e-05
  using double precision KISS FFT
  3d grid and FFT values/proc = 8000 3375
  generated 1 of 1 mixed pair_coeff terms from geometric mixing rule


# -- simulation protocol --


timestep        1.0
dump            1 all custom 2500 traj_npt.lammpstrj id mol type x y z ix iy iz
thermo_style    custom step time temp press vol density pe etotal epair ebond eangle edihed
fix             fxnpt all npt temp 160.0 160.0 100.0 iso 1.0 1.0 1000.0 drag 1.0


# ----------------------------- Customization -------------------------------
variable	d equal density
variable 	pe equal epair

fix extra all print 100 "${d} ${pe}" file out.txt screen no

run             1000000
PPPM initialization ...
  using 12-bit tables for long-range coulomb (../kspace.cpp:340)
  G vector (1/distance) = 0.13982374
  grid = 15 15 15
  stencil order = 5
  estimated absolute RMS force accuracy = 0.025711481
  estimated relative force accuracy = 7.7429363e-05
  using double precision KISS FFT
  3d grid and FFT values/proc = 8000 3375
  generated 1 of 1 mixed pair_coeff terms from geometric mixing rule
Per MPI rank memory allocation (min/avg/max) = 9.723 | 9.723 | 9.723 Mbytes
Step Time Temp Press Volume Density PotEng TotEng E_pair E_bond E_angle E_dihed 
       2            2            0    1.7188027    1108717.9  0.024027777    181.92292    181.92292     13.46648 1.4398946e-05    168.45642            0 
     500          500 6.0149377e-05    1.7080752    1110989.7  0.023978643    181.86579    181.86669    13.409133 1.1719094e-05    168.45665            0 
    1000         1000 0.00041623193    1.6873693    1116069.4  0.023869507    181.73771    181.74391    13.281263 8.2992888e-06    168.45644            0 
    1500         1500 0.0017191184    1.6646745    1122511.7  0.023732516    181.57561    181.60123     13.11909 8.3543025e-06    168.45651            0 
    2000         2000 0.0058151696    1.6446743    1129570.5  0.023584208        181.4    181.48666    12.943321 1.9718599e-05    168.45666            0 
    2500         2500  0.017792568    1.6262746    1136830.7  0.023433591     181.2258    181.49093    12.769327 2.097698e-05    168.45646            0 
    3000         3000  0.029933017    3.9578444    1144105.5  0.023284588     200.7064    201.15243    32.249004 0.00015740123    168.45724            0 
    3500         3500   0.15821617    4.3903177    1163307.1  0.022900253    205.18654    207.54413    36.728354 0.00013098873    168.45806            0 
    4000         4000   0.51146922    5.1021219    1192898.6   0.02233218    210.69124    218.31267    42.232891 0.00038624224    168.45796            0 
    4500         4500    1.4394338    5.1327051    1223091.5  0.021780894    208.51532    229.96442    40.054765 0.00039385248    168.46016            0 
    5000         5000    4.1846714    3.2107673    1247837.4  0.021348955    192.60189    254.95797    24.134967 0.0025089832    168.46442            0 
    5500         5500    12.021519   0.49799212    1258870.2  0.021161853    172.23435    351.36784    3.7132381  0.027693258    168.49341            0 
    6000         6000    33.468018    1.8800915    1268128.2   0.02100736    186.70329    685.41255    17.890995   0.20142163    168.61087            0 
    6500         6500    77.917334    2.4492314    1282899.1  0.020765487    195.48347    1356.5351    25.093204    1.0844907    169.30578            0 
    7000         7000     134.0039  -0.97413327    1294642.6  0.020577128    167.76099    2164.5625    -6.957753    3.0602392    171.65851            0 
    7500         7500    159.73489    2.3561469    1292211.4  0.020615842    195.37147    2575.5921    18.035867    4.3008164    173.03478            0 
    8000         8000    160.09689  -0.86952275    1294638.7   0.02057719    163.31774    2548.9327   -13.669665    4.2935738    172.69383            0 
    8500         8500    160.45543   0.94479672    1285574.4  0.020722274    168.28769    2559.2452   -9.5164578    4.2103279    173.59382            0 
    9000         9000    164.40163   0.78630194    1293244.6  0.020599372   -5.5459845     2444.214   -187.18276    5.0198861    176.61689            0 
    9500         9500    160.00549     11.20489    1372263.1  0.019413205    162.55539    2546.8083   -34.316885    5.1673798    191.70489            0 
   10000        10000      160.613    22.333121    1427258.5  0.018665173    165.14574    2558.4512   -48.670628     5.089743    208.72663            0 
   10500        10500    159.33021    24.015774    1524357.9  0.017476228    204.47266    2578.6632   -9.7467763    5.1642681    209.05516            0 
   11000        11000    159.73892    14.945902    1612201.3  0.016524007    139.33091    2519.6117   -68.647181    5.2565305    202.72156            0 
   11500        11500    160.47939    9.1071267    1697052.8  0.015697818    129.74084    2521.0554   -66.757931    5.2597705      191.239            0 
   12000        12000    161.32602    9.6591941    1791834.7  0.014867457    146.33419    2550.2644   -51.130421    4.8531439    192.61146            0 
   12500        12500    160.95503    6.8127859    1886523.8  0.014121224    148.52649    2546.9286   -58.505532    6.4014921    200.63053            0 
   13000        13000    159.10938    25.665208      1980036  0.013454314    141.00315    2511.9031   -83.305159    5.9176456    218.39066            0 
   13500        13500     160.3421    11.488269    2088540.2  0.012755333     168.2386    2557.5074   -62.958626    5.0733386    226.12388            0 
   14000        14000    154.03469    45.085533    2246468.7  0.011858623    259.00026    2554.2819    34.082613     6.303177    218.61447            0 
   14500        14500    160.33549    9.5683947    2408463.4  0.011061005    237.12709    2626.2974   -16.336719    6.2909064     247.1729            0 
   15000        15000    158.43144     20.05655      2567318  0.010376598     271.6247    2632.4226   -9.6688015    6.2836012     275.0099            0 
   15500        15500    159.88023    6.3491144    2741057.1 0.0097188876    245.91776    2628.3042   -18.641385    8.1383855    256.42076            0 
   16000        16000     147.2288    47.507104    2915656.1 0.0091368889    393.33898    2587.2055    87.799216    10.258222    295.28154            0 
   16500        16500    161.00803    11.426759    3136799.4 0.0084927413    230.88365    2630.0755   -32.190942    6.9809974     256.0936            0 
   17000        17000    159.56359    13.530018    3423903.5 0.0077806008    266.72809    2644.3962   -40.576324    7.3183579    299.98606            0 
   17500        17500    159.13822    15.787697    3697146.4 0.0072055642    309.39623    2680.7259   -19.383326    8.0409224    320.73864            0 
   18000        18000    159.07854    13.975719    4000757.9 0.0066587447    310.48748    2680.9279   -23.532904    8.3063952    325.71398            0 
   18500        18500    160.17709    11.149359      4324399 0.0061603996     301.8615    2688.6715   -18.523518    8.4976782    311.88734            0 
   19000        19000    158.28009    9.9477918    4667383.1 0.0057077007    335.65837     2694.201   -14.022844    10.504082    339.17713            0 
   19500        19500    159.24736    8.3573568    5035640.9  0.005290295    326.73805     2699.694   -12.524278    11.327645    327.93469            0 
   20000        20000    159.43767    8.3000561    5421597.4 0.0049136857    330.92128    2706.7131   -16.912794    10.735149    337.09892            0 
   20500        20500    159.24297     8.819203    5832804.6 0.0045672756    336.50231    2709.3928   -16.953235    11.000346     342.4552            0 
   21000        21000    159.42927    8.5237808    6265345.9 0.0042519641    337.85165    2713.5183   -14.355462     10.96829    341.23883            0 
   21500        21500    160.22584    7.4810826    6729319.2 0.0039587996    328.20856    2715.7449   -21.397956    12.218534    337.38798            0 
   22000        22000    159.52545    6.1836973    7210069.1 0.0036948364    348.49999    2725.5998   -15.548046     12.86436    351.18368            0 
   22500        22500    160.01258    5.4100836    7708876.3   0.00345576    345.07709    2729.4356   -13.461829    13.832644    344.70628            0 
   23000        23000    159.14394    4.8942393    8233556.9 0.0032355428    359.97048    2731.3854    -12.61231    13.728179    358.85461            0 
   23500        23500    159.86205    4.2709088    8783351.5 0.0030330137    350.24764    2732.3632   -16.301578    14.990151    351.55907            0 
   24000        24000    159.10201    4.4600823    9361286.8 0.0028457654     366.1044    2736.8945   -13.499892     14.91493    364.68936            0 
   24500        24500    159.98911    3.8292781    9958490.9 0.0026751067    358.80161    2742.8104   -10.406014    14.577753    354.62987            0 
   25000        25000    159.63557    3.6153341     10578295 0.0025183667    368.09456    2746.8352   -8.5146111    15.891789    360.71738            0 
   25500        25500     159.5826    3.5251433     11223638 0.0023735641    372.10488    2750.0563   -8.4189347    16.880286    363.64353            0 
   26000        26000    159.32721     3.502094     11886195 0.0022412578    378.55748    2752.7033   -7.3949039    15.454975    370.49741            0 
   26500        26500    159.89188    3.0664288     12567979 0.0021196745    370.59167    2753.1517   -9.5967132    15.494502    364.69388            0 
   27000        27000    160.09018    2.9227381     13260729 0.0020089413    369.41214     2754.927   -10.842445     15.42276    364.83182            0 
   27500        27500    159.31444    2.6174455     13969864 0.0019069639    385.62775    2759.5833   -7.2786996    15.865306    377.04114            0 
   28000        28000    160.05252    2.1846873     14682684 0.0018143839    376.38501    2761.3388   -7.0518066    18.083653    365.35316            0 
   28500        28500    159.41985    1.6908276     15409827 0.0017287686    386.50013    2762.0264   -7.3906504    17.508908    376.38187            0 
   29000        29000    160.10549    1.6137094     16140620 0.0016504958    379.90207    2765.6452   -6.7824598    17.570979    369.11355            0 
   29500        29500     159.4514    1.9497956     16871635 0.0015789831    389.38569    2765.3821   -8.0362757    17.565384    379.85659            0 
   30000        30000    159.99144    2.0096405     17606978  0.001513038    384.31275    2768.3563   -6.7732323    17.070344    374.01564            0 
   30500        30500    160.16063    2.1384985     18334421 0.0014530062    384.95835    2771.5231   -4.3087293    17.012475     372.2546            0 
   31000        31000    159.63671     2.232424     19050889 0.0013983613    393.55611    2772.3138   -4.8849415    17.409894    381.03115            0 
   31500        31500    159.95877    1.9826239     19756015 0.0013484514    389.30478    2772.8615   -5.7155694    17.767261    377.25309            0 
   32000        32000    160.03262    1.5454283     20430721   0.00130392    390.11986    2774.7771   -5.0619704    18.722319    376.45951            0 
   32500        32500    159.80442    1.3424515     21090743 0.0012631146    394.65531     2775.912    -4.308311      19.7007    379.26292            0 
   33000        33000    160.19484    1.1652541     21718211 0.0012266216    390.65514    2777.7296   -4.1846796    20.115478    374.72434            0 
   33500        33500    159.64976    1.2443639     22315717 0.0011937786    398.11434    2777.0666   -6.0495665    21.058683    383.10522            0 
   34000        34000    159.97707   0.90201688     22877543 0.0011644619    394.74381    2778.5733   -4.4703841     20.14914    379.06505            0 
   34500        34500    159.64984   0.88433084     23395548 0.0011386793    400.29504    2779.2484   -4.5339194    20.595422    384.23353            0 
   35000        35000    160.05231   0.61576296     23881597 0.0011155044    395.78494    2780.7355   -3.4758997    18.932029    380.32881            0 
   35500        35500    160.28537   0.95553062     24334887 0.0010947257    392.49247    2780.9159   -4.1056547    19.333954    377.26417            0 
   36000        36000    159.63737    1.1177974     24732195 0.0010771396    401.71382    2780.4813   -5.5325932     19.64458    387.60184            0 
   36500        36500    159.78173    1.4356436     25079475 0.0010622242    401.54802    2782.4667   -4.0006841     19.39598    386.15273            0 
   37000        37000    159.97227    1.6275297     25372542 0.0010499549    399.52341    2783.2814   -3.4547648    18.228369     384.7498            0 
   37500        37500    160.48635    1.6974782     25625262 0.0010396002    391.54412    2782.9623   -4.6456983    17.548352    378.64146            0 
   38000        38000    160.47592    1.2809046     25842590 0.0010308574    391.08312    2782.3459    -5.165851    17.622566     378.6264            0 
   38500        38500    159.86477   0.94509149     26035903 0.0010232034     401.6838    2783.8399   -3.8513087    19.987862    385.54725            0 
   39000        39000    160.02346   0.45444269     26169897 0.0010179645    399.40858    2783.9292   -4.3208833    20.917597    382.81187            0 
   39500        39500    159.68362   0.52814873     26265332 0.0010142657    404.76413    2784.2208     -3.54716    20.981852    387.32944            0 
   40000        40000    159.83718   0.82362517     26346089 0.0010111568    402.92682    2784.6718   -3.6566497    21.073555    385.50992            0 
   40500        40500    159.68227   0.88528451     26418346 0.0010083911    404.73075    2784.1673   -4.6357388    21.186495       388.18            0 
   41000        41000    160.21703   0.86845886     26463038 0.0010066881    397.04331    2784.4485   -4.3466809    19.038932    382.35106            0 
   41500        41500    160.34505   0.74859872     26495983 0.0010054364     394.6855    2783.9983   -4.8146075    18.645173    380.85493            0 
   42000        42000    159.52763    0.6957581     26532698 0.0010040451    408.52323    2785.6555   -3.7267183    19.768586    392.48137            0 
   42500        42500    159.75509   0.50754957     26555341  0.001003189    404.55914    2785.0808   -4.5255288    21.044768     388.0399            0 
   43000        43000    159.93745   0.66240237     26595822 0.0010016621    402.98485    2786.2238   -3.5044719    21.375786    385.11353            0 
   43500        43500    159.65859   0.92069406     26651063 0.00099958586    405.93116    2785.0149   -2.4956376    21.624736    386.80206            0 
   44000        44000    159.81277    1.1941943     26712263 0.00099729575    405.22489    2786.6061   -2.7108592    19.261842    388.67391            0 
   44500        44500    160.11358    1.1816072     26755412 0.00099568736    400.06312    2785.9268   -3.7257809    20.198253    383.59064            0 
   45000        45000    160.04881    1.1911887     26791652 0.00099434054    399.91502    2784.8135   -4.0924756    19.856803     384.1507            0 
   45500        45500    159.80141    1.2509257     26829050 0.0009929545    404.87679    2786.0887   -3.7248428    18.117614    390.48402            0 
   46000        46000    160.50699    1.2912701     26860413 0.0009917951     394.6214    2786.3472   -3.6158012    19.135365    379.10184            0 
   46500        46500    159.84968    1.0971732     26884842 0.00099089391    404.82794    2786.7592   -3.4682797    20.593332    387.70289            0 
   47000        47000    160.27891   0.84554564     26899764 0.00099034422    398.36932    2786.6965    -3.241405    22.222695    379.38803            0 
   47500        47500    159.89901   0.88707792     26921902 0.00098952985    404.44796    2787.1142   -3.7247757    20.582217    387.59052            0 
   48000        48000    159.89179   0.60511846     26953977 0.00098835233     403.9105    2786.4692   -3.7045175    22.612085    385.00293            0 
   48500        48500    160.18279   0.85957594     26966484 0.00098789392    397.58195    2784.4768   -6.5723238    19.827359    384.32692            0 
   49000        49000    159.76603    1.2721324     27001829 0.0009866008    403.60587    2784.2906    -5.535667    18.955728    390.18581            0 
   49500        49500    159.79376    1.2909492     27059991 0.0009844802    404.57864    2785.6766   -4.2744872    20.257773    388.59535            0 
   50000        50000    160.12109    1.0338646     27121722 0.00098223949    400.37528    2786.3508   -4.1417913    21.218071      383.299            0 
   50500        50500     159.9396    1.3014862     27175986 0.00098027816    404.34715    2787.6182   -2.8424146    21.067021    386.12255            0 
   51000        51000    160.36535    1.1879924     27243152 0.00097786135    398.08188    2787.6971   -3.2388454    20.946972    380.37376            0 
   51500        51500    159.66983    1.0938261     27309010 0.00097550316    406.84371    2786.0949   -3.1704559    20.952434    389.06173            0 
   52000        52000    160.25334    1.0815528     27372242 0.0009732497    399.37036    2787.3165   -3.3557246    19.257661    383.46842            0 
   52500        52500     159.9511   0.89856745     27422423 0.00097146872    402.30417    2785.7465   -4.8968796    19.979955    387.22109            0 
   53000        53000    159.51019   0.90369966     27448247 0.00097055473    407.48158     2784.354   -4.8747962    20.466805    391.88957            0 
   53500        53500    159.95392   0.56393509     27476580 0.00096955391    403.67001    2787.1545   -4.8342738    21.598912    386.90537            0 
   54000        54000    159.70206   0.88240162     27507033 0.00096848052    408.34562    2788.0771   -3.4418126    21.776324    390.01111            0 
   54500        54500    160.42542    1.0898955     27527053 0.00096777616    394.47296    2784.9832   -6.7931691    20.139539    381.12659            0 
   55000        55000    160.04939    1.2015195     27583791 0.0009657855    400.35041    2785.2575   -6.6336439    20.753355     386.2307            0 
   55500        55500    160.03907    1.1319523     27622956 0.00096441617    400.40373     2785.157    -5.735278    18.832766    387.30624            0 
   56000        56000    159.96541   0.92628687     27660241 0.00096311619     403.8313    2787.4869   -4.1066403    19.791074    388.14687            0 
   56500        56500    160.14683   0.87456928     27697273 0.00096182848    400.95681    2787.3159   -4.4093484    21.611462     383.7547            0 
   57000        57000    159.81409   0.97792884     27726045 0.00096083037     405.2942     2786.695    -6.007509    21.469498    389.83221            0 
   57500        57500    160.17711    1.1601588     27762184 0.00095957962    400.11319    2786.9234   -4.3786451    21.432686    383.05915            0 
   58000        58000    159.77266    1.2318558     27794371 0.00095846838    406.22041    2787.0039    -4.936034    21.345069    389.81138            0 
   58500        58500    160.01963    0.9819807     27811448 0.00095787985    402.80358    2787.2672   -5.2904152    20.985271    387.10873            0 
   59000        59000    160.11534    0.9895292     27817416 0.00095767434    403.18715    2789.0769   -3.6430016    20.551279    386.27887            0 
   59500        59500    160.38342   0.84024362     27807894 0.00095800227    398.00675    2787.8912   -4.7411749    21.292705    381.45522            0 
   60000        60000    159.59894   0.69640155     27831180 0.00095720074    410.29245    2788.4874   -4.3018058    20.739222    393.85503            0 
   60500        60500    160.35158   0.81139665     27873482 0.00095574805    399.40867    2788.8187   -3.8819592    20.109588    383.18104            0 
   61000        61000    159.78358   0.79449961     27912687 0.00095440564    408.63126    2789.5775   -3.7723704    20.595917    391.80771            0 
   61500        61500    159.76053   0.85670689     27936291 0.00095359924    409.21347    2789.8162   -4.3096827    20.909868    392.61329            0 
   62000        62000    159.68272   0.78096909     27971084 0.00095241307    410.10379    2789.5471    -4.012424     21.95754    392.15867            0 
   62500        62500    160.18598    1.0394279     28010599 0.00095106947    403.41379    2790.3562   -3.2805691    21.724113    384.97024            0 
   63000        63000    159.78771    1.2860565     28052936 0.00094963414    407.96473    2788.9726   -4.2604093    20.966309    391.25883            0 
   63500        63500    160.09299    1.3141039     28086272 0.00094850702    404.24669    2789.8034   -4.2830032    20.728566    387.80113            0 
   64000        64000    160.09493    1.0458483     28103866 0.00094791321    404.24069    2789.8264   -4.7751555     21.13164    387.88421            0 
   64500        64500    159.68268    1.1565593     28130504 0.0009470156    409.81967    2789.2624   -5.1880559    19.875833    395.13189            0 
   65000        65000    160.08262   0.80825789     28163543 0.00094590465     405.6503    2791.0525   -3.7966142    20.534251    388.91266            0 
   65500        65500    159.73957    1.0678087     28190386 0.00094500394    411.84172    2792.1322   -2.8118955    20.588658    394.06496            0 
   66000        66000    160.16981    1.0138666     28214271 0.00094420396    405.14927    2791.8508   -2.8779718    22.366875    385.66037            0 
   66500        66500    159.66776    1.0154294     28224441 0.00094386372    413.43466    2792.6551   -3.1040257    21.510333    395.02835            0 
   67000        67000    159.91901   0.88733522     28226346 0.00094380001     410.1572    2793.1215   -2.1280248     20.82918    391.45605            0 
   67500        67500    160.46669    0.8839249     28203229 0.0009445736    400.77467    2791.8999   -2.7372456    20.790639    382.72128            0 
   68000        68000    159.49202    1.0980399     28192387 0.00094493686     415.0337    2791.6354   -3.4073242    19.246502    399.19453            0 
   68500        68500     160.1733    1.1047188     28196688 0.00094479273    406.99036    2793.7439   -1.4635576    20.741161    387.71276            0 
   69000        69000    159.76339    1.4110566     28207714 0.00094442342    412.95138    2793.5968    -1.806561    21.468833     393.2891            0 
   69500        69500    160.47787    1.5352332     28215910 0.00094414909    400.82402    2792.1158   -3.8593822    20.354924    384.32848            0 
   70000        70000    159.81219    1.5806396     28250712 0.00094298601    410.06396    2791.4365   -4.2186479     19.61601     394.6666            0 
   70500        70500    159.47315    1.3750923     28277502 0.00094209262    415.50562    2791.8262   -1.0063924    20.169129    396.34288            0 
   71000        71000    160.22102    1.1151747     28347366 0.00093977078    403.59441     2791.059   -4.3788569    21.269269      386.704            0 
   71500        71500    160.01024     1.029189     28406694 0.00093780804    408.72965    2793.0533   -2.9318751    21.104147    390.55738            0 
   72000        72000     160.2393    0.9328572     28444692 0.00093655527     403.9347    2791.6717   -4.8302572    20.165957      388.599            0 
   72500        72500    159.93769   0.96644755     28484097 0.00093525963    407.99687    2791.2395   -4.9346246    22.005565    390.92593            0 
   73000        73000    160.18663   0.94383863     28541251 0.00093338676    406.43634    2793.3884   -2.0742998    20.590699    387.91994            0 
   73500        73500     159.5572   0.94432798     28573134 0.00093234524     416.4517    2794.0247   -2.4052421    22.010074    396.84686            0 
   74000        74000    160.08209   0.98323432     28606036 0.0009312729    408.15959    2793.5539    -2.626544    21.006635    389.77949            0 
   74500        74500    160.07766    1.0573274     28624249 0.00093068036    408.34004    2793.6683   -2.9022085    21.524828    389.71742            0 
   75000        75000    160.02826    1.2667715     28638915 0.00093020374     406.5173    2791.1095   -3.8114602    20.252765      390.076            0 
   75500        75500    160.03025    1.2196068     28652670 0.0009297572    406.74023     2791.362   -5.2959443    21.333705    390.70247            0 
   76000        76000    160.02584    1.2867062     28642110 0.00093009996    406.60721    2791.1634   -5.2711143    21.623988    390.25434            0 
   76500        76500    160.09755    1.2847967     28626703 0.00093060057    407.11353    2792.7382    -3.929651     22.34196    388.70122            0 
   77000        77000     160.6163    1.0210921     28607085 0.00093123875    398.55231    2791.9069   -5.4310245    21.993846    381.98948            0 
   77500        77500    159.34674    1.2091038     28606775 0.00093124885    417.15378    2791.5906    -5.528146    21.741805    400.94012            0 
   78000        78000    160.29609    1.0506002     28641592 0.0009301168     403.8931    2792.4763   -3.9991798     20.88774    387.00454            0 
   78500        78500    159.84168     1.341256     28663712 0.00092939901    410.39099     2792.203    -4.021376    20.058042    394.35432            0 
   79000        79000     159.6451    1.3199708     28711370 0.00092785632    413.93636    2792.8191   -4.6019636    20.528702    398.00962            0 
   79500        79500    160.27534    1.1192553     28753093 0.00092650991    403.14757    2791.4216   -5.4576532    21.374053    387.23117            0 
   80000        80000      159.877   0.99059575     28802142 0.00092493212    409.38513    2791.7234   -4.1950028    21.654474    391.92566            0 
   80500        80500    159.53045    1.0641224     28846158 0.00092352078    415.33478     2792.509   -5.3455467    21.621099    399.05923            0 
   81000        81000    160.17196   0.72235805     28887538 0.00092219787    407.73398    2794.4674   -3.1423183    22.924953    387.95134            0 
   81500        81500    160.02688   0.83110413     28934579 0.00092069859    410.42526    2794.9969    -3.394912    22.099185    391.72099            0 
   82000        82000    160.01817   0.87102821     28997448 0.00091870244    410.55532    2794.9971   -3.5713939    22.578546    391.54817            0 
   82500        82500    160.22775    1.0140754     29058800 0.00091676275    406.19511    2793.7599   -4.3034292    21.448438     389.0501            0 
   83000        83000    159.91758    1.1872547     29116596 0.00091494302    412.59463    2795.5376    -2.826273    21.052812    394.36809            0 
   83500        83500    160.08147    1.1699184     29148822 0.00091393147    411.20419    2796.5892   -2.6017682    22.630898    391.17506            0 
   84000        84000    159.98122    1.1850097     29160912 0.00091355258     410.4921    2794.3833   -4.4791567    21.556198    393.41505            0 
   84500        84500    160.17823    1.0770553     29174918 0.00091311399    408.56082    2795.3877   -3.1789714    22.244562    389.49523            0 
   85000        85000    160.15643   0.88631747     29158444 0.00091362989    408.19624    2794.6983   -3.7287383    21.631966    390.29301            0 
   85500        85500     159.7163   0.97946983     29145500 0.00091403566    415.56222    2795.5059   -2.7351606    19.830707    398.46667            0 
   86000        86000    160.12369   0.92762379     29177384 0.00091303681    409.46867    2795.4829   -3.5371246    21.451006    391.55479            0 
   86500        86500    159.94388    1.1073767     29221395 0.00091166169    411.84412     2795.179   -3.8055286    22.232732    393.41691            0 
   87000        87000    159.88008    1.1345934     29280167 0.00090983175    412.70086    2795.0851   -3.8897074    21.409011    395.18156            0 
   87500        87500    160.32118    1.1877231     29365669 0.00090718268    406.70338    2795.6604   -3.9528816    21.612332    389.04393            0 
   88000        88000    159.76493    1.1807004     29435460 0.00090503175    416.09463     2796.763   -1.9586559    22.513299    395.53999            0 
   88500        88500    159.51264   0.93332851     29474113 0.00090384486    419.19183    2796.1008   -2.8150344    20.659571     401.3473            0 
   89000        89000    159.78395   0.74402634     29469146 0.00090399723    416.00451    2796.9562   -2.6472007    22.140585    396.51112            0 
   89500        89500    159.71958   0.84082254     29458386 0.00090432741    416.78112    2796.7737   -3.4108081    22.790144    397.40179            0 
   90000        90000    160.05304   0.79500564     29472187 0.00090390395    410.94021    2795.9016   -4.0117061    23.572492    391.37942            0 
   90500        90500    159.78833    1.1352389     29511853 0.00090268904    415.60938    2796.6264   -4.3886119    22.483326    397.51467            0 
   91000        91000    159.95085    1.2323816     29574656 0.00090077212    412.78564    2796.2244   -4.0291509     23.36205    393.45274            0 
   91500        91500    159.54474     1.087261     29644246 0.00089865758    419.80478     2797.192   -3.0393036    21.303461    401.54062            0 
   92000        92000    160.23115    0.9139527     29701033 0.00089693938    408.64427    2796.2597   -4.6673394    22.531748    390.77986            0 
   92500        92500    159.86201   0.83203119     29771995 0.0008948015    415.57205     2797.687   -2.8794788    22.408135    396.04339            0 
   93000        93000    160.06041   0.76695772     29807847 0.00089372527    413.75564     2798.827   -2.8576081    22.086485    394.52677            0 
   93500        93500    160.24448    1.0297436     29825677  0.000893191    410.97721    2798.7914   -1.8126054    21.665281    391.12454            0 
   94000        94000    159.48981    1.4937299     29873953 0.00089174759    421.79961    2798.3684   -2.9656733    20.358784     404.4065            0 
   94500        94500    160.28793    1.3715068     29910406 0.00089066079     410.4327    2798.8943   -3.6559423    22.655098    391.43354            0 
   95000        95000    159.93228    1.3906883     29949751 0.00088949073    414.38765    2797.5497   -4.3819488    22.711374    396.05823            0 
   95500        95500    160.19951    1.3652901     29982797 0.00088851037    410.54868    2797.6927   -3.7217539    21.639444    392.63099            0 
   96000        96000    159.82539    1.1442933     29989873 0.00088830072    417.54742    2799.1166   -3.2525522    21.720291    399.07968            0 
   96500        96500    159.87755   0.97049699     29984055 0.0008884731    416.50221    2798.8487   -3.5440595    21.642089    398.40418            0 
   97000        97000    160.15975   0.90925475     29975171 0.00088873643    411.92999    2798.4815    -3.706954      22.5376    393.09935            0 
   97500        97500    159.98758    1.0956633     29976094 0.00088870905     413.4535    2797.4395   -5.1036699     22.10499    396.45218            0 
   98000        98000    159.73788   0.94918264     29989754 0.00088830426    416.71505    2796.9803   -5.2371789    22.258279    399.69395            0 
   98500        98500    159.98321     1.192502     30003223 0.00088790549    414.44844    2798.3694   -4.6546473    24.490326    394.61276            0 
   99000        99000    159.49265    1.1978089     30007039 0.00088779257    421.22528    2797.8363   -4.2833896    22.102376     403.4063            0 
   99500        99500    160.64042    1.2453329     29997040 0.00088808849    403.87199    2797.5861   -4.5784606    21.042344    387.40811            0 
  100000       100000    159.55381    1.2088701     30009936 0.00088770686    422.39916    2799.9216   -2.7882557     22.70322     402.4842            0 
  100500       100500    160.12217    1.2203499     30042769 0.00088673669    413.42157    2799.4132   -3.4708222    22.758296    394.13409            0 
  101000       101000    159.92458     1.210501     30081770 0.00088558706    417.19404    2800.2413   -3.1346132    21.093868    399.23478            0 
  101500       101500    159.87989    1.2861843     30122602 0.00088438662    417.96493    2800.3463   -3.4671192    20.994454    400.43759            0 
  102000       102000    159.99354    1.1709934     30162950 0.00088320359    415.08867    2799.1636    -3.711093     23.16748    395.63228            0 
  102500       102500    160.65459    1.2401055     30190371 0.00088240141    404.30305    2798.2282   -4.8439803    21.951229     387.1958            0 
  103000       103000     159.6062     1.299569     30215999 0.00088165298    420.09987     2798.403   -3.6700797    22.041393    401.72855            0 
  103500       103500    160.47004    1.1772569     30230785 0.00088122177    408.15317    2799.3284   -3.6500226    23.385103    388.41809            0 
  104000       104000    159.90729    1.1774136     30248750 0.0008806984    417.33221    2800.1219   -3.3017934    23.778403     396.8556            0 
  104500       104500     160.0745   0.94790223     30268818 0.00088011451     415.4591    2800.7404   -2.7726094    23.738415    394.49329            0 
  105000       105000    160.49603   0.98126111     30281090 0.00087975784    408.01348    2799.5759   -3.7164736     24.49349    387.23647            0 
  105500       105500    159.83207    1.0799123     30313606 0.00087881415    419.71541    2801.3843   -2.5084547    23.153758    399.07011            0 
  106000       106000    160.28446   0.85947933     30338641 0.00087808896    412.84208    2801.2519   -1.9130188    23.777489    390.97761            0 
  106500       106500    159.82037   0.90612005     30353168 0.00087766872    418.81786    2800.3123   -2.9185607    22.172696    399.56372            0 
  107000       107000    159.89276   0.87736942     30378056 0.00087694965    418.00615    2800.5793   -3.2270147    21.349403    399.88376            0 
  107500       107500    160.28327   0.62692292     30419476 0.00087575559    412.95149    2801.3436   -2.7897531     23.78066    391.96058            0 
  108000       108000    159.21486   0.48774686     30456806 0.00087468221    429.07713    2801.5489   -2.9959199    24.798812    407.27423            0 
  108500       108500    160.34429   0.12078814     30483501 0.00087391622    412.07939    2801.3808   -3.1114282    25.704247    389.48657            0 
  109000       109000    159.63971   0.22424447     30502683 0.00087336665    423.15623    2801.9586   -2.5146376    24.472476    401.19839            0 
  109500       109500    159.73216  0.045599794     30501090 0.00087341227    420.76275    2800.9427   -3.1636943    24.942705    398.98374            0 
  110000       110000    159.99208   0.38772207     30490228 0.0008737234    416.62281    2800.6758   -3.6562362    23.815086    396.46396            0 
  110500       110500    159.93572   0.62556814     30516814 0.00087296224    416.34675    2799.5601    -3.241336    23.501144    396.08694            0 
  111000       111000    160.33501   0.89765055     30636078 0.00086956384    411.60782    2800.7709   -3.9999087    23.794044    391.81369            0 
  111500       111500    160.05614    1.1761988     30748388 0.00086638772    417.84002    2802.8477   -2.3500255    22.798969    397.39108            0 
  112000       112000    159.75069    1.2573212     30820629 0.00086435698    421.16791     2801.624   -3.6806732    23.130704    401.71788            0 
  112500       112500    159.97612    1.2062635     30858123 0.00086330676    418.06045    2801.8757   -3.1336582     24.12116    397.07295            0 
  113000       113000    159.58309    1.1238094     30852627 0.00086346053    424.36775    2802.3264   -3.4850065    24.163178    403.68958            0 
  113500       113500    160.24998   0.96224594     30858516 0.00086329577    414.35366    2802.2497   -3.0047563    24.643406    392.71502            0 
  114000       114000    160.36266   0.83060919     30880434  0.000862683    412.78946    2802.3646   -3.2519279    23.151723    392.88966            0 
  114500       114500    160.19184    0.8451888     30901944 0.00086208253    415.78824     2802.818   -3.0314426    23.502521    395.31717            0 
  115000       115000    159.79676    1.0104836     30923770 0.00086147407    422.57178    2803.7144   -2.1548728    23.044424    401.68222            0 
  115500       115500    160.07171    1.2362328     30920965 0.00086155221      418.289    2803.5287   -2.7237921    23.130053    397.88274            0 
  116000       116000    160.05722    1.2829427     30914859 0.00086172239    417.82729    2802.8511   -3.9296433    23.178897    398.57803            0 
  116500       116500    160.08064    1.4916542     30926853 0.00086138819    417.89802    2803.2707     -2.47837    22.529393      397.847            0 
  117000       117000    160.05068    1.5063728     30932471 0.00086123174    418.28048    2803.2067   -3.0239652    22.174274    399.13017            0 
  117500       117500    159.92951    1.2609587     30940740 0.00086100157     420.4067    2803.5274   -2.9307706    24.654141    398.68333            0 
  118000       118000    160.01915    1.1513772     30952953 0.00086066185    418.87394    2803.3304   -2.7390676    23.796879    397.81613            0 
  118500       118500    160.12443   0.87055889     30955619 0.00086058773    417.96356    2803.9889   -2.5970132    23.556222    397.00435            0 
  119000       119000    159.85297   0.92165314     30936868 0.00086110935    421.58088    2803.5612   -2.9465473    23.968017    400.55941            0 
  119500       119500     160.3388   0.76931863     30910049 0.00086185649    412.71223    2801.9318   -3.8173664    23.942745    392.58686            0 
  120000       120000    159.75509   0.67577907     30910017 0.00086185738    420.74318    2801.2648   -5.1973635    22.630494    403.31005            0 
  120500       120500    160.24808   0.67948217     30911126 0.00086182645    414.04114    2801.9089   -4.3286893    22.642229     395.7276            0 
  121000       121000    160.18446   0.67717587     30919153 0.00086160271    416.30723     2803.227   -3.4102502    24.967863    394.74962            0 
  121500       121500    159.91951   0.62251625     30957443 0.00086053702    420.53319     2803.505   -3.1149906    25.551813    398.09637            0 
  122000       122000    159.70292   0.79110267     31007053 0.0008591602     424.3744    2804.1187    -2.613664    25.589151    401.39892            0 
  122500       122500    160.02004   0.78517842     31063732 0.00085759256    420.32605    2804.7958   -2.6438528    26.048449    396.92145            0 
  123000       123000    159.66323   0.80501256     31101851 0.00085654151    424.96059    2804.1134   -2.5770739    26.609608    400.92805            0 
  123500       123500    159.75023   0.81153878     31114394 0.00085619619    424.87922    2805.3285   -2.2023543    24.997029    402.08454            0 
  124000       124000    159.85192    0.6131113     31104854 0.00085645881    423.55496    2805.5195   -1.7195725    24.523408    400.75112            0 
  124500       124500    160.00662   0.42698361     31109755 0.00085632389    420.80836    2805.0782   -2.5327606    25.475114    397.86601            0 
  125000       125000    160.03499    0.5452648     31105954 0.00085642851     419.7875    2804.4801   -3.0452779    24.630263    398.20251            0 
  125500       125500    160.13369    0.8197646     31100146 0.00085658845    418.74933    2804.9126   -3.0554483    24.727278     397.0775            0 
  126000       126000    159.99247    1.0142131     31088464 0.00085691032    420.08043    2804.1393   -3.7899465    25.257936    398.61244            0 
  126500       126500    159.73431     1.414656     31091908 0.00085681541    422.92457    2803.1366   -3.9283085    22.950089    403.90279            0 
  127000       127000    160.37584    1.3654953     31130226 0.00085576077    414.29442    2804.0659   -3.3996758    23.471619    394.22247            0 
  127500       127500    160.26591    1.3507304     31162628 0.00085487097    416.31041    2804.4438   -4.1245557    22.332731    398.10224            0 
  128000       128000    159.87809    1.3973013     31203454 0.00085375246    422.27316    2804.6277    -1.883602    22.500817    401.65594            0 
  128500       128500    160.22882     1.098824     31238958 0.00085278215    417.40352    2804.9844   -3.3198474    24.807761    395.91561            0 
  129000       129000    160.33249    1.1678178     31266687 0.00085202586    415.35316    2804.4787   -3.3457769    23.147627    395.55131            0 
  129500       129500    159.80017    1.1092663     31276786 0.00085175076    423.06449    2804.2579   -3.6439201    22.640123    404.06828            0 
  130000       130000    160.04966    1.0374937     31282870 0.0008515851    419.47867    2804.3897   -3.7416007    23.776665     399.4436            0 
  130500       130500    159.96167    1.1255634     31291869 0.00085134019    421.20327    2804.8032   -3.1266686    25.369853    398.96009            0 
  131000       131000    160.24596    1.0892454     31300114 0.00085111594    415.56055    2803.3967    -4.982069    24.924037    395.61858            0 
  131500       131500    160.24511    1.1015483     31334073 0.00085019354    414.65374    2802.4772   -5.5322502    23.346286     396.8397            0 
  132000       132000    159.73362   0.76067503     31400369 0.00084839849    424.28882    2804.4905   -2.6602817    25.731943    401.21716            0 
  132500       132500     159.9983   0.60618835     31463476 0.00084669685    420.22603    2804.3718   -3.7154379    24.195242    399.74622            0 
  133000       133000    160.39571   0.36378328     31500693 0.00084569651    414.48254    2804.5501   -3.5540079     26.10586    391.93069            0 
  133500       133500    159.59288   0.74707616     31542492 0.00084457583    427.90547      2806.01   -2.9073009    24.780346    406.03243            0 
  134000       134000    160.39076   0.84090521     31593117 0.00084322247    415.29728    2805.2911    -3.377836    22.695276    395.97984            0 
  134500       134500    159.72741    1.3005481     31628399 0.00084228184    425.59079       2805.7     -3.24865    23.417163    405.42227            0 
  135000       135000    159.80048    1.3998188     31655697 0.00084155549    424.66132    2805.8594   -3.1376957    24.266986    403.53203            0 
  135500       135500    159.78403    1.4975973     31668344 0.00084121943    425.14377    2806.0968   -2.5867648    21.423988    406.30655            0 
  136000       136000     159.8422    1.5284378     31671907 0.00084112478    423.14688    2804.9666   -3.5177299    23.853762    402.81085            0 
  136500       136500    160.06198    1.4315002     31682517 0.0008408431    419.62767    2804.7223   -4.6174388    25.166618    399.07849            0 
  137000       137000    160.20663    1.5518145     31697698 0.00084044041    417.75643    2805.0065   -4.0500869    23.553421     398.2531            0 
  137500       137500    160.13684    1.5758241     31706942 0.00084019538    416.88918    2803.0993   -5.9421725    24.199214    398.63214            0 
  138000       138000    160.01518    1.5831548     31754318 0.00083894183     421.9228    2806.3201    -2.669035    24.924649    399.66718            0 
  138500       138500    160.70145    1.4256751     31764441 0.00083867448    409.91529    2804.5388   -3.8438615    23.778986    389.98016            0 
  139000       139000    160.09127    1.2033084     31786470 0.00083809324    420.97909    2806.5102   -2.1682746    26.314989    396.83238            0 
  139500       139500    159.52479    1.2791903     31805644  0.000837588    430.74637    2807.8364   -1.7451067    24.233155    408.25832            0 
  140000       140000    160.26065    1.0417617     31824613 0.00083708876    417.55362    2805.6087   -4.4166679    24.137835    397.83245            0 
  140500       140500    159.93901    1.1286284     31850281 0.00083641417    422.89545    2806.1577   -3.1593037    24.901045    401.15371            0 
  141000       141000    159.77322   0.95088772     31843982 0.0008365796    425.86879    2806.6606   -1.5507131    24.776132    402.64337            0 
  141500       141500    159.95957   0.88187619     31807782 0.0008375317    423.01518    2806.5839   -2.6838796    24.265249    401.43381            0 
  142000       142000    159.86723    0.7584031     31789107 0.00083802374    424.68884    2806.8815   -2.9778654    26.164477    401.50223            0 
  142500       142500    159.85497    0.7756433     31802996 0.00083765775    424.17802    2806.1881   -3.3477907    24.400557    403.12525            0 
  143000       143000    160.05188   0.64176628     31836137 0.00083678576    421.50865    2806.4528   -3.1512411    24.428168    400.23172            0 
  143500       143500    160.25098   0.68073629     31874206 0.00083578634    418.83016    2806.7412   -2.8113047    24.885742    396.75573            0 
  144000       144000    159.61922   0.95015925     31891299 0.00083533838    428.99109    2807.4881   -3.0571397    24.428134     407.6201            0 
  144500       144500    160.06637    0.8776771     31901913 0.00083506047     422.5421    2807.7022   -3.0334872    24.657492     400.9181            0 
  145000       145000    159.74293     1.146239     31919831 0.00083459169    427.76989    2808.1103   -2.7744361    25.114325       405.43            0 
  145500       145500    159.99262    1.3634992     31938169 0.0008341125    423.53724    2807.5984   -2.9436458    25.817668    400.66322            0 
  146000       146000    160.05608    1.2349073     31949038 0.00083382874    423.32452    2808.3313   -2.4590441    25.366877    400.41669            0 
  146500       146500    160.42359    1.3610253     31951077 0.00083377552    418.46086    2808.9439   -2.0067034    24.909085    395.55848            0 
  147000       147000    159.59822    1.5390539     31951601 0.00083376185    430.24201    2808.4261   -1.9630887    23.464264    408.74084            0 
  147500       147500    160.47919    1.2503635     31957145 0.00083361722    416.76404    2808.0756   -2.7092734    24.181464    395.29185            0 
  148000       148000    160.14805    1.4550558     31961114 0.0008335137    421.29442    2807.6717   -3.6143164    24.930432     399.9783            0 
  148500       148500     160.2936    1.2678115     31970477 0.00083326958    418.99672    2807.5428   -3.1397864    22.994312     399.1422            0 
  149000       149000    159.77476     0.993869     31953996 0.00083369936    428.26565    2809.0804   -2.0762777    25.313927      405.028            0 
  149500       149500    160.35418   0.77156492     31928355 0.00083436887    418.99535    2808.4441   -3.2887592     26.27685    396.00726            0 
  150000       150000    160.14843   0.71875917     31937208 0.00083413761    421.71812    2808.1009   -2.7705699    26.728651    397.76004            0 
  150500       150500     159.2463    0.8537495     31976422 0.00083311466    434.43821    2807.3784   -3.2588031    25.828722    411.86829            0 
  151000       151000    160.32166   0.82389289     32037822  0.000831518    419.29552    2808.2597   -2.7876729    25.424082    396.65911            0 
  151500       151500    159.84734    0.6954401     32112393 0.00082958707    425.75801    2807.6544   -3.9972258    26.005694    403.74954            0 
  152000       152000    159.99269   0.77524805     32167796 0.00082815826    424.80186     2808.864   -2.4804242    27.785585     399.4967            0 
  152500       152500    160.14604   0.85207149     32194923 0.00082746046    423.22606    2809.5733   -2.4477119    25.773362    399.90041            0 
  153000       153000    159.48243   0.98949149     32189652 0.00082759596    432.56771    2809.0264   -3.4011307     27.17538    408.79346            0 
  153500       153500    160.11311   0.86162068     32193684 0.00082749231    423.33926    2809.1958   -2.7780937    26.317925    399.79943            0 
  154000       154000    159.70857   0.85037551     32196995 0.0008274072    429.96625    2809.7948   -1.8889297    25.591615    406.26356            0 
  154500       154500    159.26507   0.76156627     32199833 0.00082733428    435.60936    2808.8293    -3.473866    25.754318     413.3289            0 
  155000       155000    160.13561   0.74064688     32182347 0.00082778382    422.12056    2808.3124   -4.6875187    26.636165    400.17191            0 
  155500       155500    160.02068   0.73204443     32166233 0.00082819849    423.98938    2808.4687   -4.4205611    25.574693    402.83525            0 
  156000       156000    159.56909   0.82680539     32166087 0.00082820225    431.82245    2809.5726   -3.3266234    25.059649    410.08943            0 
  156500       156500    160.06764   0.71725672     32179060 0.00082786837    424.18994     2809.369   -2.7407617    25.225494    401.70521            0 
  157000       157000    160.31735   0.81502248     32192543 0.00082752164    420.68968    2809.5897   -2.9346364    23.848373    399.77594            0 
  157500       157500    159.99682   0.84970898     32203495 0.00082724022    424.67512    2808.7988   -3.7812743    26.003444    402.45295            0 
  158000       158000    160.10393    1.0254132     32203525 0.00082723944    423.45604    2809.1758   -3.3660123    27.366628    399.45542            0 
  158500       158500    159.55287     1.449007     32206942 0.00082715168    432.15117    2809.6595   -3.7601067    26.360746    409.55053            0 
  159000       159000    160.07773    1.4436648     32244811 0.00082618025    424.17712    2809.5065   -3.1972321    25.697405    401.67695            0 
  159500       159500    159.80194    1.2851847     32264447 0.00082567743    429.72501    2810.9448   -2.5520927    26.301355    405.97574            0 
  160000       160000     160.0297   0.82161766     32266143 0.00082563403    425.62318    2810.2369   -2.6144601    24.525887    403.71175            0 
  160500       160500    160.47227   0.80092304     32261333 0.00082575713    419.88628    2811.0947   -1.7911232     25.05603    396.62138            0 
  161000       161000    159.94953     1.093602     32250940 0.00082602324    427.50023    2810.9192   -2.8624843    24.235791    406.12692            0 
  161500       161500    159.41205    1.2956767     32243153 0.00082622272    435.17985    2810.5899   -3.0304887    24.600297    413.61004            0 
  162000       162000    160.39416    1.2643705     32242722 0.00082623378    418.56487    2808.6094   -2.2227853    25.176858     395.6108            0 
  162500       162500    159.45875    1.4085758     32263963 0.00082568983    433.91134    2810.0172   -3.2784827    24.725396    412.46442            0 
  163000       163000    159.94856   0.97563288     32267937 0.00082558814     426.5799    2809.9845   -3.1833796    26.133313    403.62996            0 
  163500       163500    160.00091    1.0891687     32266433 0.00082562661    426.32749    2810.5122   -2.8507255    25.486162    403.69205            0 
  164000       164000    159.97212    1.2771657     32255985 0.00082589405    426.21618    2809.9718   -3.8289448    26.493024     403.5521            0 
  164500       164500    160.37856    1.3225392     32254632 0.00082592868    419.53192     2809.344    -3.632417     25.21643    397.94791            0 
  165000       165000    159.73453    1.2837352     32258982 0.00082581733    429.72042    2809.9357   -3.9942792    26.142309    407.57239            0 
  165500       165500    160.04599    1.3223876     32271214 0.00082550429    425.39037    2810.2467   -3.2532481    26.994249    401.64937            0 
  166000       166000    159.87813    1.2936467     32290446 0.00082501263     428.4824    2810.8374   -2.7569316    25.953798    405.28553            0 
  166500       166500     159.8435    1.3356048     32342297 0.00082368997    429.61144    2811.4505   -2.6785053    25.348598    406.94134            0 
  167000       167000    160.36663    1.3536366     32386280 0.00082257135    421.08974     2810.724   -3.8396502    24.428835    400.50056            0 
  167500       167500    159.71399    1.0295123     32419734 0.00082172253    432.19516    2812.1044   -2.2027812     26.54567    407.85227            0 
  168000       168000    160.35956   0.85271541     32435417 0.00082132522    421.67642    2811.2054   -3.5392244    26.749436    398.46621            0 
  168500       168500    159.89656   0.88706449     32433758 0.00082136722    429.02501    2811.6548   -3.1856012    26.269959    405.94065            0 
  169000       169000    159.48435   0.97533873     32411848 0.00082192246    435.11028    2811.5976   -3.2649783    26.798393    411.57687            0 
  169500       169500    159.28841    1.0207633     32397915 0.00082227593    437.66938     2811.237   -2.8529993    25.539415    414.98296            0 
  170000       170000     160.1363      1.00778     32416868 0.00082179518    425.26387     2811.466   -3.7496695    26.836451    402.17709            0 
  170500       170500    159.23393    1.1458371     32453336 0.00082087173    439.81458    2812.5704    -2.545221    26.409513    415.95029            0 
  171000       171000     160.6175    1.0050181     32466389 0.00082054171    417.62123    2810.9938   -4.3179962    25.602411    396.33681            0 
  171500       171500    159.74455    1.1944742     32486957 0.00082002219    431.60989    2811.9745   -3.5296118    25.787499      409.352            0 
  172000       172000     159.9171    1.0016219     32486379 0.00082003678     428.0848    2811.0207   -4.6438086    26.183565    406.54505            0 
  172500       172500     159.8446   0.83381774     32489286 0.00081996341    429.84893    2811.7044   -3.8828215    27.033293    406.69846            0 
  173000       173000      160.179   0.80714078     32469022 0.00082047515    423.79382    2810.6322   -5.3737903     26.31621     402.8514            0 
  173500       173500    159.82108   0.70155116     32448007 0.00082100654    429.93203    2811.4371   -3.8741381    25.417462    408.38871            0 
  174000       174000    160.19622   0.57942049     32410208 0.00082196404    423.80366    2810.8986   -3.9129745     25.62646    402.09018            0 
  174500       174500    159.68029      0.75895     32407621 0.00082202967    433.03037    2812.4375   -1.9181311    26.673124    408.27538            0 
  175000       175000    160.11855   0.76588863     32426719 0.00082154553    427.63491    2813.5725   -1.8978688    27.611475     401.9213            0 
  175500       175500     159.8289   0.98460105     32429771 0.00082146822    431.10086    2812.7225   -3.3168604    27.268765    407.14896            0 
  176000       176000    159.98379    1.1387881     32461577 0.00082066333    427.95259    2811.8821   -4.1643469    27.181779    404.93516            0 
  176500       176500    160.22454    1.2862104     32512094 0.0008193882    425.10638    2812.6233    -2.874792    25.040267    402.94091            0 
  177000       177000    159.61156      1.45583     32542125 0.00081863203    433.91881    2812.3018     -2.67586    25.935842    410.65882            0 
  177500       177500    160.06704     1.222803     32572187 0.00081787649    428.11123    2813.2813   -2.5654827    25.889127    404.78759            0 
  178000       178000    160.23531     1.025015     32579738 0.00081768694    424.45806    2812.1355   -3.5143192    24.786333    403.18605            0 
  178500       178500    160.07038   0.84960864     32593100 0.00081735171     426.7105    2811.9304   -4.4379077    27.249141    403.89927            0 
  179000       179000    159.95816   0.64123555     32628934 0.00081645406    429.71401    2813.2616   -2.9571702    27.289684     405.3815            0 
  179500       179500    159.72301   0.68330844     32671117 0.00081539992    432.64875    2812.6924   -3.3203088    27.812169    408.15689            0 
  180000       180000    159.91232   0.87990542     32731031 0.00081390733     431.0094    2813.8739    -2.447784    27.136892     406.3203            0 
  180500       180500    159.70654     0.854357     32783057 0.00081261567    433.98695    2813.7852   -3.0367389    28.326293     408.6974            0 
  181000       181000    159.84545   0.80822037     32822966 0.00081162763    430.86731    2812.7354    -3.900126    26.905783    407.86165            0 
  181500       181500     160.4842   0.82338493     32864990 0.00081058982     422.2114    2813.5976   -2.8784621    27.274996    397.81487            0 
  182000       182000     159.6912     1.088052     32913428 0.00080939688     434.8279    2814.3975   -2.2379516    26.910794    410.15506            0 
  182500       182500     160.3664   0.92374257     32955108 0.0008083732    424.31205     2813.943   -3.1715727     27.67372    399.80991            0 
  183000       183000    159.68158   0.90941327     33010211 0.00080702379    434.24443    2813.6708   -3.0989312    29.024612    408.31875            0 
  183500       183500    159.89821   0.81465944     33063934 0.00080571253      432.306    2814.9603   -1.5901657    28.172151    405.72401            0 
  184000       184000     159.6146   0.81875469     33105850 0.00080469241    436.23357    2814.6618   -2.6410247    27.531115    411.34347            0 
  184500       184500    160.45208   0.63367556     33134647 0.00080399305    423.04595    2813.9535   -4.3145384    26.963919    400.39657            0 
  185000       185000    159.83928   0.82131191     33202165 0.00080235809    432.92036    2814.6966   -2.9916833     27.50366    408.40839            0 
  185500       185500    159.88199   0.71548805     33266931 0.00080079601    432.44197    2814.8546   -2.7078503     28.44453    406.70529            0 
  186000       186000    159.98313    1.0348416     33311291 0.00079972961    431.00476    2814.9245   -2.2374604     26.34463    406.89759            0 
  186500       186500    159.91086   0.97977326     33344441 0.00079893456    432.83797    2815.6808   -2.6266223    27.385275    408.07932            0 
  187000       187000     159.9919    1.0453909     33351754 0.00079875936    431.21145    2815.2619   -2.9465844    28.062515    406.09552            0 
  187500       187500    160.11737   0.99251883     33349227 0.00079881989      428.563     2814.483   -3.8647272    27.747708    404.68002            0 
  188000       188000    159.76462    1.1135679     33362056 0.0007985127    435.11215    2815.7758   -3.4070635    27.444457    411.07475            0 
  188500       188500     160.2976    1.1242532     33385947 0.00079794131    427.06264    2815.6682   -3.3841756       26.608    403.83881            0 
  189000       189000    159.73699   0.88693314     33413596 0.00079728103     435.7858    2816.0378   -2.7085818    27.664346    410.83004            0 
  189500       189500    159.76274   0.58333512     33440246 0.00079664564    435.31111    2815.9467   -2.7788174    27.861078    410.22885            0 
  190000       190000    159.86248    0.6878946     33452362 0.00079635709    433.79865    2815.9206    -3.702027    27.513974     409.9867            0 
  190500       190500    159.85155   0.86229446     33465665 0.00079604053    434.15207    2816.1111   -2.7527461    25.809695    411.09512            0 
  191000       191000    159.74428    1.1305746     33464395 0.00079607075    436.11615    2816.4768   -3.0162255    26.894419    412.23796            0 
  191500       191500    159.60163    1.1434783     33458353 0.0007962145    438.31079    2816.5458   -2.7562471    28.182843    412.88419            0 
  192000       192000    160.51016    1.1439404     33441734 0.00079661019     424.0044    2815.7775   -3.0916961    26.123932    400.97216            0 
  192500       192500    159.79164    1.2009398     33461223 0.00079614622     434.8755    2815.9419   -3.3139001    26.102231    412.08717            0 
  193000       193000    160.22843    1.0716449     33489148 0.00079548234    427.80189    2815.3769   -4.1044827    25.984773     405.9216            0 
  193500       193500    160.01387   0.77192176     33524380 0.00079464634    430.99197    2815.3698   -3.5772017    26.944897    407.62427            0 
  194000       194000    160.09154   0.63808587     33549407 0.00079405355    429.63484      2815.17   -4.5581457    28.577018    405.61597            0 
  194500       194500    159.99748   0.78374585     33584540 0.0007932229    431.17419    2815.3077   -3.0497059    29.187045    405.03685            0 
  195000       195000    159.80928   0.93893689     33640671 0.00079189936     435.0004    2816.3295   -3.2375882    27.732917    410.50508            0 
  195500       195500    160.02499   0.66194225     33681105 0.0007909487    431.48314    2816.0267   -3.6316393    27.855737    407.25905            0 
  196000       196000    159.97987   0.36863969     33728165 0.00078984511    433.30603    2817.1772   -2.5364115    29.675827    406.16662            0 
  196500       196500    159.90102   0.28844285     33738996 0.00078959153    434.41629    2817.1125   -2.6757902    29.192934    407.89915            0 
  197000       197000     160.0791   0.17979827     33729189 0.00078982112    431.11556    2816.4654   -3.5562587    28.409343    406.26248            0 
  197500       197500    159.71666   0.19363342     33741740 0.00078952733    436.00359    2815.9527    -3.070923    28.963811     410.1107            0 
  198000       198000    159.44015   0.37342848     33738701 0.00078959844    440.25834    2816.0871   -3.8528295    28.601785    415.50938            0 
  198500       198500    159.52054   0.48373134     33733113 0.00078972924    439.04702    2816.0737   -3.9252637    28.709483     414.2628            0 
  199000       199000    159.90498   0.56364914     33750910 0.00078931282    433.21134    2815.9666   -4.4492197    28.551506    409.10905            0 
  199500       199500    159.98957   0.80105063     33786967 0.00078847047    433.16722     2817.183   -2.6888286     26.86095     408.9951            0 
  200000       200000     160.1821   0.96056683     33809516 0.0007879446    430.07346     2816.958   -3.3099377    26.471142    406.91225            0 
  200500       200500    159.79351    1.0761098     33863956 0.0007866779    436.61416    2817.7084   -2.5013224      27.8026    411.31289            0 
  201000       201000    159.98939     1.089819     33917917 0.00078542635    433.92466    2817.9377   -1.5187306    27.830959    407.61243            0 
  201500       201500    159.90487    1.2206972     33972221 0.00078417087    433.56618    2816.3198   -3.9408035    25.781773    411.72521            0 
  202000       202000    160.04945   0.98260039     34035744 0.00078270732    432.22114    2817.1291   -2.9161964     27.58413    407.55321            0 
  202500       202500    160.10886    1.1969999     34069587 0.00078192982    431.43816    2817.2314   -2.6694159    27.685386    406.42219            0 
  203000       203000      160.564    1.0691749     34088368 0.00078149902     423.3347      2815.91   -5.3696248    26.026717    402.67761            0 
  203500       203500    159.62244    1.1379112     34141596 0.00078028063    438.90788    2817.4529   -3.0162322    26.376788    415.54732            0 
  204000       204000    159.67824    1.1978738     34201468 0.0007789147    438.95556    2818.3322   -2.1622952    27.176769    413.94108            0 
  204500       204500    160.24869    1.1203954     34249579 0.00077782055    430.46366    2818.3405   -2.5683423    27.621481    405.41053            0 
  205000       205000    160.50097   0.93200381     34279208 0.00077714823    427.05703    2818.6932   -2.0438952    27.995934    401.10499            0 
  205500       205500    159.56914    0.8299316     34280068 0.00077712873    440.81809     2818.569   -2.3102013    28.467382    414.66091            0 
  206000       206000    159.78133   0.57630438     34284670 0.00077702442    438.30915    2819.2218   -2.1859211    28.102347    412.39272            0 
  206500       206500    160.33005   0.56392202     34276670 0.00077720577    429.00903    2818.0982   -3.4052759    28.801379    403.61293            0 
  207000       207000    159.95432   0.74659863     34275633 0.00077722928     435.1155    2818.6059   -3.1650079    27.218698    411.06181            0 
  207500       207500    160.02354   0.80912779     34297608 0.0007767313    434.77666    2819.2985   -2.1639318    28.623498    408.31709            0 
  208000       208000    160.15331   0.79475764     34329622 0.00077600696    431.81745    2818.2731   -3.4706291    26.862886     408.4252            0 
  208500       208500    159.72044   0.89295135     34358651 0.00077535133    438.48287    2818.4882   -3.3717633    27.593932     414.2607            0 
  209000       209000    160.31304    0.8513835     34405851 0.00077428765     430.6715    2819.5073   -2.1724627    28.847302    403.99666            0 
  209500       209500    159.71151   0.94197537     34454429 0.00077319598    439.64992    2819.5222   -2.3642394    28.202452     413.8117            0 
  210000       210000    160.16228    1.0569991     34499134 0.00077219405    434.31506    2820.9043   -1.8550367    27.950887    408.21921            0 
  210500       210500    159.97175   0.81043534     34529092 0.00077152408    437.30744    2821.0575   -1.9847706    29.079635    410.21258            0 
  211000       211000    159.96913    0.9062592     34562956 0.00077076815    436.57123    2820.2823   -2.2120926    28.506683    410.27664            0 
  211500       211500    160.45935   0.86308896     34584004 0.00077029907     429.1187    2820.1346   -2.8185781    28.130865    403.80641            0 
  212000       212000     159.7108    1.1630946     34628836 0.00076930179    440.05423     2819.916   -3.4823824    28.616418    414.92019            0 
  212500       212500    160.32761    1.2515792     34670603 0.00076837503    430.32561    2819.3785   -3.2562852    28.822074    404.75982            0 
  213000       213000    159.86219    1.4993735     34745752 0.00076671318    438.63804    2820.7557   -3.3511033    27.015496    414.97365            0 
  213500       213500    159.56657    1.3431958     34804475 0.00076541955    442.62227    2820.3347   -3.5649668    27.767164    418.42007            0 
  214000       214000    160.07869    1.0222867     34841230 0.00076461209    434.20708    2819.5507   -3.7790092     29.61405    408.37204            0 
  214500       214500    159.77799   0.82153937     34873636 0.00076390159    440.64707    2821.5101   -3.3843792    29.157487    414.87396            0 
  215000       215000    159.96029   0.62744636     34887670 0.0007635943    436.81327    2820.3926   -2.9125744     29.36441    410.36143            0 
  215500       215500    159.75954   0.77390651     34905454 0.00076320524    441.12886    2821.7168   -2.7041708    28.993661    414.83937            0 
  216000       216000     160.1088   0.93284734     34917933 0.0007629325     435.2676      2821.06   -2.8422011    30.799048    407.31075            0 
  216500       216500    160.39555    1.0078753     34934206 0.00076257711    431.31544    2821.3807   -3.4499338    28.100136    406.66524            0 
  217000       217000     160.0277    1.0662453     34979287 0.00076159431    436.88123    2821.4651   -2.6021802     28.06427    411.41914            0 
  217500       217500    159.88325   0.98029632     35021871 0.00076066826    439.30266     2821.734   -2.3554073    28.456467     413.2016            0 
  218000       218000    160.27937    1.0675256     35070466 0.00075961425    434.04079    2822.3747   -3.2906771    27.348037    409.98343            0 
  218500       218500    159.90808   0.94362466     35105064 0.00075886562    437.88136    2820.6828   -3.1988506    28.468233    412.61198            0 
  219000       219000    160.24172   0.85996212     35130403 0.00075831826       433.34     2821.113   -3.9574706    29.055375     408.2421            0 
  219500       219500    160.12719   0.85605213     35134417 0.00075823161    434.89011    2820.9565   -4.2457553    27.748799    411.38706            0 
  220000       220000    159.92588   0.91390361     35136177 0.00075819363    436.93796    2820.0046   -3.3333202    27.174318    413.09697            0 
  220500       220500    159.80637   0.75973791     35214643 0.00075650422    440.39896    2821.6848   -3.4567139    29.440532    414.41515            0 
  221000       221000    160.22793    0.4467901     35277884 0.00075514807    433.81737    2821.3848   -3.7746681    30.125344    407.46669            0 
  221500       221500    159.68177   0.50861749     35335390 0.00075391911    442.20619    2821.6353   -3.7833225    28.938711    417.05081            0 
  222000       222000    159.82912   0.60072955     35370790 0.00075316458    439.47353    2821.0984   -3.0933629    28.103956    414.46294            0 
  222500       222500    159.83929   0.61874772     35401979 0.00075250104    441.97889    2823.7552   -2.0253571    29.665092    414.33916            0 
  223000       223000    159.62003   0.71506532     35409610 0.00075233886    444.47074    2822.9799   -2.9498687    30.156974    417.26363            0 
  223500       223500    160.16364   0.72949965     35412634 0.00075227462    436.03781    2822.6474   -3.0047686    29.551138    409.49144            0 
  224000       224000     160.5141    0.8152036     35435783 0.00075178319    430.30841    2822.1401   -2.6178381    29.628623    403.29763            0 
  224500       224500    159.32561    1.0639592     35465208 0.00075115945    448.19796      2822.32   -3.6100542    29.924126    421.88389            0 
  225000       225000    160.11903   0.97576609     35481551 0.00075081346    435.67417     2821.619   -3.7799043    31.307608    408.14646            0 
  225500       225500    160.16781   0.80329815     35484204 0.00075075733    435.45675    2822.1284   -3.9393491    30.663699     408.7324            0 
  226000       226000    159.57896   0.84023728     35469888 0.00075106033     443.1407    2821.0379    -4.186439    30.422016    416.90512            0 
  226500       226500    159.84109   0.79879766     35489301 0.00075064949     440.6245    2822.4277   -3.7125899     30.46672    413.87037            0 
  227000       227000    159.68048    1.0461324     35512086 0.00075016787    443.51569    2822.9255   -3.7422253    28.511624    418.74629            0 
  227500       227500     159.7811    1.0404426     35516576 0.00075007303    440.35646    2821.2658   -4.5546816    28.753772    416.15737            0 
  228000       228000    160.11591    1.2029652     35530730 0.00074977423    436.10832    2822.0066   -4.4133592    30.594461    409.92722            0 
  228500       228500    159.83468    1.2062308     35536404 0.00074965452    441.07823     2822.786   -3.4120862    28.923861    415.56646            0 
  229000       229000    160.20209    1.2780624     35538088 0.00074961901    436.01693    2823.1994   -3.5085856    27.805894    411.71962            0 
  229500       229500    160.37197    1.0794047     35532328 0.00074974051    432.61079    2822.3246   -3.1633225    29.116906    406.65721            0 
  230000       230000    159.70999   0.98305522     35537188 0.00074963799    443.43795    2823.2877   -3.4751577    30.951009     415.9621            0 
  230500       230500    159.75456   0.95641551     35542238 0.00074953148    442.04557    2822.5593   -3.0487754    30.141313    414.95303            0 
  231000       231000    160.16267   0.96421715     35572432 0.00074889527    436.80342    2823.3985   -3.1510405    29.953083    410.00138            0 
  231500       231500    160.12026   0.73064676     35618012 0.00074793692    437.29688      2823.26   -3.4031389    30.643762    410.05626            0 
  232000       232000    159.76233   0.92699821     35632806 0.00074762639    442.19223    2822.8218   -3.7870092    29.596067    416.38317            0 
  232500       232500     160.5202   0.94920533     35640828 0.00074745812    431.86041     2823.783   -3.7593418     29.32779    406.29197            0 
  233000       233000    159.95734    0.9022603     35654653 0.00074716829    438.44928    2821.9846   -4.6766598    30.380222    412.74571            0 
  233500       233500    160.04091   0.94225866     35678494  0.000746669    438.78196    2823.5627   -3.0369907    30.625056     411.1939            0 
  234000       234000    159.45538    1.0125739     35683081 0.00074657303     448.5893     2824.645   -1.4936055    30.573432    419.50948            0 
  234500       234500    160.47149   0.89434596     35695965 0.00074630357    433.26507    2824.4619    -3.078413    30.340635    406.00284            0 
  235000       235000    159.68515    1.0369974     35720983 0.00074578088    444.51481    2823.9944   -2.0712323    29.334115    417.25193            0 
  235500       235500    159.39036    1.0274076     35773777 0.00074468027    451.83717     2826.924   -1.5131425    30.555448    422.79486            0 
  236000       236000    160.08039   0.99263652     35829748 0.00074351698    440.82696    2826.1959    -2.083213    29.584343    413.32583            0 
  236500       236500     159.5663    1.0506143     35892742 0.00074221206    448.31534    2826.0239   -2.4852696    29.492952    421.30766            0 
  237000       237000    160.33539   0.80242918     35929925 0.00074144396    437.07612    2826.2449   -2.8607836    30.703743    409.23316            0 
  237500       237500    160.33496   0.93642098     35940480 0.00074122622    436.58983    2825.7523   -2.8964143    30.228462    409.25778            0 
  238000       238000    159.82539    1.1754397     35928674 0.00074146978    444.90984     2826.479   -2.4138684    29.544555    417.77915            0 
  238500       238500    160.14726    1.2261615     35904464 0.00074196974     438.5113    2824.8767   -2.9546229    29.666465    411.79946            0 
  239000       239000    160.12194    1.4749024     35911060 0.00074183346    438.95625    2824.9443   -3.6596225     29.30757     413.3083            0 
  239500       239500    159.93885     1.428483     35894789 0.00074216973    441.53956    2824.7995   -3.6088436    29.863455    415.28494            0 
  240000       240000    159.90191    1.0460231     35874481 0.00074258986    442.85134    2825.5608    -3.346421     32.73263    413.46513            0 
  240500       240500    160.20894   0.93432115     35858987 0.00074291073    438.98265    2826.2672   -2.5783042    30.235231    411.32572            0 
  241000       241000    159.93659    1.0142721     35832706 0.00074345561    442.12926    2825.3555    -1.495833    30.469626    413.15546            0 
  241500       241500    160.15245   0.83121125     35845244 0.00074319555     440.4715    2826.9143   -1.7134732      30.5022    411.68278            0 
  242000       242000    160.14341    1.0070961     35848002 0.00074313837     439.5026    2825.8107   -2.6116195    30.161773    411.95245            0 
  242500       242500    160.23487   0.97207862     35849025 0.00074311717    438.58219    2826.2531   -2.7114077     29.24258    412.05102            0 
  243000       243000     160.5065   0.90168192     35851721 0.00074306129    435.00015    2826.7186   -2.3328632    30.867707    406.46531            0 
  243500       243500    159.55802   0.92876101     35854605 0.00074300152     449.1129    2826.6981    -2.406698    31.451207    420.06839            0 
  244000       244000    160.19926   0.85451229     35871916 0.00074264295    438.91863    2826.0589   -2.7820272    31.515982    410.18468            0 
  244500       244500    159.92317    1.1030125     35894619 0.00074217324    443.16886    2826.1951    -3.396022    30.788502    415.77638            0 
  245000       245000    160.01997    1.1859059     35922998 0.00074158694    441.10204    2825.5708   -3.6156176    29.275156     415.4425            0 
  245500       245500    159.95002    1.2288021     35971139 0.00074059445    442.59933    2826.0256   -4.5357498    31.332722    415.80236            0 
  246000       246000    160.35963    1.2779229     36034980 0.00073928239    436.80827    2826.3383   -3.3685394     31.96549    408.21132            0 
  246500       246500    160.17985    1.2848657     36061784 0.0007387329    438.86428    2825.7154   -4.6918895    31.243177    412.31299            0 
  247000       247000    159.87372    1.1650387     36075252 0.0007384571     443.9289    2826.2183   -3.8759548    30.715263    417.08959            0 
  247500       247500    160.05186     1.110066     36101296 0.00073792437    443.47254    2828.4163   -1.9469101    29.661708    415.75774            0 
  248000       248000     160.0396    1.0710449     36098361 0.00073798437    443.86015    2828.6214   -2.1335652    32.215481    413.77824            0 
  248500       248500    159.92018    1.0403477     36104108 0.0007378669    444.75954    2827.7413   -2.6509077     32.71675     414.6937            0 
  249000       249000    160.41557    0.9114294     36113673 0.00073767147    436.71371    2827.0773   -3.5892487    32.496011    407.80695            0 
  249500       249500     159.8141   0.95027505     36122874 0.00073748357    446.38399    2827.7849   -2.1432948    31.599775    416.92751            0 
  250000       250000    160.61013   0.81973376     36143052 0.00073707185    435.01403    2828.2767   -2.5683016    31.242071    406.34026            0 
  250500       250500    160.19823   0.88452306     36150721 0.00073691548    441.43913    2828.5641    -1.884067     32.31563    411.00757            0 
  251000       251000     159.9345    1.1161663     36146809 0.00073699523     445.4136    2828.6087   -2.3414796     30.47011    417.28497            0 
  251500       251500    159.97286    1.1007706     36132477 0.00073728757    444.12796    2827.8947   -2.9394074    29.873627    417.19374            0 
  252000       252000    159.99136   0.93352794     36117207 0.00073759928    443.73211    2827.7745   -2.5032087    31.803001    414.43232            0 
  252500       252500    160.60643   0.83996379     36099963 0.00073795162    433.88242      2827.09   -3.3680289    33.227303    404.02315            0 
  253000       253000    160.24875    0.9209316     36106116 0.00073782585    439.95049    2827.8282   -3.0558957    31.228822    411.77756            0 
  253500       253500    160.04111   0.88475657     36140028 0.00073713352    442.97208    2827.7557   -2.6621182    31.073784    414.56041            0 
  254000       254000    159.46659   0.89405461     36195361 0.00073600664    451.95328    2828.1761   -1.3926875    32.011485    421.33448            0 
  254500       254500    159.95887   0.78392554     36247694 0.00073494402    445.13757    2828.6958   -1.6766283    30.563956    416.25025            0 
  255000       255000    159.32106   0.87725623     36286430 0.00073415947    453.55989    2827.6141   -2.5288803    31.669157    424.41961            0 
  255500       255500    160.19909   0.77960188     36330155 0.00073327588    440.96836    2828.1062   -2.8993839    31.708982    412.15877            0 
  256000       256000    160.21107   0.78450432     36365830 0.00073255651    440.68608    2828.0024   -3.2364516    30.340062    413.58247            0 
  256500       256500    159.69538    1.0422107     36404585 0.00073177666    449.31547    2828.9474   -2.1797223    29.685417    421.80977            0 
  257000       257000     159.5763    1.3086931     36431406 0.00073123793     451.6573    2829.5149   -1.5624774     29.76135    423.45843            0 
  257500       257500    160.23276    1.3148285     36449368 0.00073087757    442.01103    2829.6505   -1.7001524    32.055835    411.65535            0 
  258000       258000     159.4175    1.3134054     36469523 0.00073047365    452.81325    2828.3044   -2.0535615    30.977182    423.88962            0 
  258500       258500    159.93287    1.1302936     36502897 0.0007298058    446.23474    2829.4055   -1.1519818    31.509176    415.87755            0 
  259000       259000    159.63472    1.0561521     36511877 0.00072962631    451.21429    2829.9423   -1.7375449    30.150138     422.8017            0 
  259500       259500    160.66435   0.70477128     36494531 0.00072997311      433.694    2827.7646   -3.6439022    31.868086    405.46982            0 
  260000       260000    159.94764   0.65672106     36521992 0.00072942423    445.12464    2828.5156   -2.5306625    29.718445    417.93686            0 
  260500       260500    159.49303   0.68653654     36552358 0.00072881826    451.88426     2828.501   -2.5717995    33.343965    421.11209            0 
  261000       261000    160.08299   0.68468297     36596613 0.00072793692    442.56008    2827.9678   -3.2403206    32.126839    413.67356            0 
  261500       261500    159.52514   0.89888735     36643094 0.00072701355    451.18262    2828.2779    -3.441998    31.359391    423.26523            0 
  262000       262000    159.87627   0.97570498     36682161 0.00072623928    444.78437    2827.1118   -4.1774662    31.924347    417.03748            0 
  262500       262500    159.74987    1.0243275     36713741 0.00072561458    447.60841    2828.0523   -3.4657791    32.568879    418.50531            0 
  263000       263000    160.13298   0.79089648     36731867 0.00072525653     442.5117    2828.6643   -2.4634283    32.033921    412.94121            0 
  263500       263500    159.63667   0.66232954     36749695 0.00072490468    451.31533    2830.0725   -1.7982731    33.100544    420.01306            0 
  264000       264000    159.98695   0.64051655     36747932 0.00072493946    444.74193    2828.7185   -3.1132803    30.674274    417.18094            0 
  264500       264500    160.08537   0.54651728     36741677 0.00072506286    443.29904    2828.7423   -2.8145699    30.094526    416.01909            0 
  265000       265000    160.08692   0.53034864     36733508 0.00072522412    442.68067     2828.147   -3.2470883    31.813289    414.11447            0 
  265500       265500    159.66619   0.53131374     36751784 0.00072486348    448.83107     2828.028   -3.5373295    34.242924    418.12548            0 
  266000       266000    160.04216   0.75833565     36757311 0.00072475448    443.73197    2828.5314   -3.2254118    33.412035    413.54534            0 
  266500       266500    160.11713   0.97634142     36781030 0.00072428711    443.88779    2829.8043   -2.7093207    32.441739    414.15537            0 
  267000       267000    160.32286    1.2880948     36806685 0.00072378227    439.55058    2828.5326   -3.6916382    29.592679    413.64953            0 
  267500       267500    160.06588    1.0257487     36853872 0.00072285554    443.60886    2828.7617   -3.6615637    30.631809    416.63861            0 
  268000       268000    160.10437   0.79619323     36898158 0.00072198796    442.72897    2828.4553   -3.5685729    31.548011    414.74953            0 
  268500       268500    160.35749   0.75198815     36914263 0.00072167297    441.09623    2830.5943   -1.6942396    31.495662    411.29481            0 
  269000       269000    159.88349   0.97346585     36908238 0.00072179078    447.56227    2829.9973   -2.5023616    31.599186    418.46544            0 
  269500       269500    159.94536    1.2926575     36915592 0.00072164698    446.18064    2829.5376   -2.6025912    31.277793    417.50543            0 
  270000       270000    159.94729    1.5041929     36921972 0.0007215223    446.33391    2829.7196   -3.1576885    32.442708    417.04889            0 
  270500       270500    159.76632     1.500346     36927446 0.00072141533    447.68213    2828.3711   -3.2579966    30.468478    420.47164            0 
  271000       271000    160.22183    1.2420143     36946331 0.00072104658    442.11946    2829.5961   -3.7126286    29.067316    416.76477            0 
  271500       271500     160.2852   0.87138898     36988065 0.00072023301    440.62307    2829.0439   -3.5169316    31.579824    412.56018            0 
  272000       272000    159.86072   0.75626036     36986859 0.00072025651     448.8157    2830.9113   -2.0122388     32.99996    417.82798            0 
  272500       272500    160.07288   0.65910407     36944507 0.00072108219    445.63788     2830.895   -2.7639377    30.789882    417.61194            0 
  273000       273000    159.89267   0.67776046     36927907 0.00072140633     447.2598    2829.8316    -2.428838    31.284271    418.40437            0 
  273500       273500    160.01358   0.92403798     36901541 0.00072192177    446.45937    2830.8329   -2.2720217    30.318738    418.41265            0 
  274000       274000    160.55019    0.9041037     36889907 0.00072214945     438.0728    2830.4423  -0.95410338     29.82937    409.19753            0 
  274500       274500    159.76417   0.91077651     36899692 0.00072195795    450.07988    2830.7369   -2.7921253    32.357962    420.51405            0 
  275000       275000    159.68558   0.84128469     36930904 0.00072134779    451.34402      2830.83   -1.8048563    34.246556    418.90232            0 
  275500       275500    160.12297   0.98866113     36948175 0.0007210106    444.79364    2830.7971   -2.6500786    32.365323    415.07839            0 
  276000       276000    160.06026    1.1981999     36943391 0.00072110398    444.55784    2829.6269   -2.8490654     30.94105    416.46586            0 
  276500       276500    159.65867     1.411775     36920997 0.00072154134     451.4943    2830.5793   -2.2853227    30.886152    422.89347            0 
  277000       277000    160.40361    1.2894638     36894601 0.00072205757    440.92559    2831.1109   -2.1030162    30.789228    412.23938            0 
  277500       277500    159.74238    1.4728483     36899444 0.00072196279    450.09411    2830.4265   -3.4602725    32.393676     421.1607            0 
  278000       278000    160.23444    1.3596248     36934648 0.00072127467    442.96419    2830.6287   -3.0716933    31.482143    414.55374            0 
  278500       278500    159.96515    1.2010144     36948695 0.00072100045    446.59009    2830.2419   -3.1170228    30.620268    419.08684            0 
  279000       279000    159.43378    1.0655368     36967657 0.00072063062    455.07404    2830.8078   -3.0476768    30.494173    427.62754            0 
  279500       279500    159.81152   0.77109629     36970187 0.00072058132    449.79711    2831.1597   -3.0190035    33.156729    419.65939            0 
  280000       280000    159.94441   0.85440616     36983029 0.0007203311    447.85838    2831.2012   -2.8651406    31.895252    418.82827            0 
  280500       280500    160.08951   0.83343423     37003068  0.000719941    446.04725    2831.5521    -2.573024    30.997489    417.62279            0 
  281000       281000    159.87035   0.94469809     37010399 0.00071979841    448.49674     2830.736   -2.5763414     30.45757    420.61551            0 
  281500       281500    159.82578   0.84865733     37019347 0.00071962442    449.61027    2831.1854  -0.62612782    31.098864    419.13753            0 
  282000       282000    160.00555   0.83239825     37043892 0.00071914759    446.29001    2830.5438   -3.5679696    31.551408    418.30657            0 
  282500       282500    159.31391   0.92534443     37070147 0.00071863827     457.4112    2831.3588    -2.794655    31.704844    428.50102            0 
  283000       283000    160.76334   0.98041045     37075755 0.00071852956     434.7625    2830.3083     -2.83638    30.891869    406.70701            0 
  283500       283500    159.70717    1.2064931     37091487 0.0007182248    451.79181    2831.5994   -2.8019459    31.361326    423.23243            0 
  284000       284000    160.33717    1.3807898     37098977 0.00071807979    441.33052    2830.5258   -3.4277317    31.666893    413.09136            0 
  284500       284500    159.84502    1.5115941     37105676 0.00071795017    449.61631     2831.478   -2.1676849     33.09541    418.68858            0 
  285000       285000     159.6575     1.575485     37096339 0.00071813086    452.70934    2831.7768   -1.8171459    31.614003    422.91248            0 
  285500       285500    160.30843    1.3532808     37107294 0.00071791884    441.14361    2829.9106   -3.7523072    31.930596    412.96532            0 
  286000       286000    159.92534    1.1876305     37125988 0.00071755735    447.58677    2830.6454    -2.635206    31.588096    418.63388            0 
  286500       286500    160.12332    1.1168822     37140173 0.0007172833    444.91909    2830.9278   -3.5508055    33.741478    414.72841            0 
  287000       287000    159.97677    1.0822315     37139776 0.00071729096    447.10661    2830.9316   -2.7746568    32.296015    417.58525            0 
  287500       287500    159.81973    1.0258113     37149561 0.00071710204    449.60676    2831.0916   -1.6663798     30.79057    420.48257            0 
  288000       288000    160.05178    1.0518164     37183023 0.00071645671    447.07595    2832.0186   -1.9997934    31.909506    417.16623            0 
  288500       288500     159.9407   0.87094427     37200269 0.00071612455    447.54682    2830.8343   -3.3245945    33.390918     417.4805            0 
  289000       289000    159.84232   0.83584103     37213938 0.00071586152    448.98809    2830.8096   -3.2033516    32.547853    419.64359            0 
  289500       289500    159.67702   0.71876612     37217760  0.000715788    451.72191    2831.0803   -2.9447313     32.38121    422.28544            0 
  290000       290000    160.14094   0.56895765     37223232 0.00071568278    444.98842    2831.2597   -2.9368865    33.144533    414.78078            0 
  290500       290500    159.32511   0.72831576     37244492 0.00071527424    457.75105    2831.8656   -2.6893637    31.731396    428.70902            0 
  291000       291000    159.92918   0.72987931     37253509 0.00071510112    449.09512    2832.2109   -2.5552204    34.123238    417.52711            0 
  291500       291500    159.92782   0.73331619     37256077 0.00071505183    448.42824    2831.5237   -3.2928448    34.534447    417.18664            0 
  292000       292000    160.29215   0.86588552     37264966 0.00071488127    442.53299    2831.0575    -2.323728     31.76625    413.09047            0 
  292500       292500    160.06155     1.108504     37282017 0.0007145543    446.38808    2831.4763    -3.794041     30.60088    419.58124            0 
  293000       293000    159.97257    1.1087486     37294959 0.00071430634    446.38761      2830.15   -4.8442211    32.411649    418.82018            0 
  293500       293500     159.6094     1.142187     37347629 0.00071329899    453.37451    2831.7252   -2.8672309    32.394206    423.84753            0 
  294000       294000    160.33706   0.70862499     37378548 0.00071270896     441.4715    2830.6652     -4.18479    34.569646    411.08664            0 
  294500       294500    159.82259   0.93953378     37405881 0.00071218816    450.12595    2831.6535   -2.0185689    31.803926     420.3406            0 
  295000       295000    159.89821      1.01049     37444944 0.00071144521    450.28069    2832.9351   -2.1349356    31.349868    421.06576            0 
  295500       295500    159.94549    1.0582309     37498382 0.00071043135    449.27448    2832.6334    -2.059652    30.833956    420.50018            0 
  296000       296000    159.94841    1.1200446     37535980 0.00070971973      449.844    2833.2464   -1.7612548     31.84328    419.76198            0 
  296500       296500    160.38201    1.0108477     37565884 0.00070915478     442.5657    2832.4292   -2.4572746    31.577286    413.44569            0 
  297000       297000    159.55244    1.0878039     37572652 0.00070902703    455.52568    2833.0277   -1.8971031    32.456996    424.96578            0 
  297500       297500    160.26995    1.1219545     37570101 0.00070907517    442.84261    2831.0363   -3.7034243     31.38048    415.16555            0 
  298000       298000    160.02558    1.0794833     37541213 0.00070962081    447.61831    2832.1706    -2.819491    31.837009    418.60079            0 
  298500       298500    159.89483     1.101815     37485313 0.00071067902    450.35159    2832.9556   -1.9212723    31.925932    420.34693            0 
  299000       299000     159.6582    1.2623421     37430683 0.00071171626    453.67556    2832.7535   -2.7192295    31.675982    424.71881            0 
  299500       299500    160.01943    1.0702732     37401469 0.00071227218    447.59364    2832.0543   -3.6509278      33.0588    418.18577            0 
  300000       300000     160.2496   0.92526835     37391711 0.00071245806    444.01947    2831.9099   -3.5033775    31.338526    416.18432            0 
  300500       300500    160.49161   0.88321957     37377545 0.00071272808    441.48333      2832.98   -1.8556543    32.545498    410.79349            0 
  301000       301000    159.78628   0.81268651     37371354 0.00071284614    451.99662     2832.983    -2.848082     35.11685    419.72786            0 
  301500       301500    160.19913   0.79572919     37363329 0.00071299927    444.26151    2831.3999   -3.9671561    33.245014    414.98366            0 
  302000       302000    159.91337   0.93074826     37345596 0.00071333781    450.47696    2833.3572   -2.2866384    32.248628    420.51497            0 
  302500       302500    160.57565   0.81194512     37324453 0.0007137419    439.89151    2832.6404   -2.3435309    30.190718    412.04432            0 
  303000       303000    159.67684    1.0929676     37319599 0.00071383473    454.43212    2833.7878   -1.9416797    32.483031    423.89077            0 
  303500       303500    160.14159    1.1353744     37324452 0.00071374192    446.08191    2832.3629   -3.3939139    33.437077    416.03875            0 
  304000       304000    160.67097    1.0867646     37349863 0.00071325632    438.84305    2833.0123    -2.036704    32.511976    408.36778            0 
  304500       304500    159.92021    1.2246565     37374585 0.00071278452    449.66584    2832.6479   -2.2570921     32.36409    419.55884            0 
  305000       305000     159.6713    1.3215587     37403340 0.00071223655    453.92376    2833.1969   -2.0385686    31.856256    424.10607            0 
  305500       305500    160.02965    1.2907645     37427542 0.00071177599    448.62921    2833.2421   -2.5180582    30.240758    420.90651            0 
  306000       306000    160.57006    1.3294507     37424196 0.00071183964    439.76985    2832.4354   -4.0087638    30.416997    413.36161            0 
  306500       306500    159.89188    1.4467193     37440295 0.00071153354    450.53983    2833.0999   -2.9473571     31.06334    422.42385            0 
  307000       307000    159.98941    1.2460601     37448414 0.00071137928    449.21121    2833.2245   -3.0100969    30.326666    421.89464            0 
  307500       307500    159.96292    1.1709957     37438206 0.00071157325    449.69348     2833.312   -2.7451095    35.296888     417.1417            0 
  308000       308000    159.80253        1.237     37409735 0.00071211481    452.18128    2833.4099   -3.0605411    34.788071    420.45375            0 
  308500       308500    160.25081    1.1521499     37394803 0.00071239916     445.2907    2833.1991   -2.5854367    32.067192    415.80895            0 
  309000       309000    160.46957    1.1157384     37375275 0.00071277136    442.39961    2833.5679   -2.7264724    32.053994    413.07209            0 
  309500       309500    159.74494    1.4431491     37360464 0.00071305394    454.41979    2834.7903   -1.8729405    33.002129     423.2906            0 
  310000       310000    159.93756    1.2778675     37353641 0.00071318418    450.54281    2833.7835   -2.3152502    31.654997    421.20306            0 
  310500       310500    160.55583    1.1320046     37357278 0.00071311475    441.17092    2833.6246   -2.8381214    30.518281    413.49076            0 
  311000       311000    159.83082      1.27707     37360996 0.00071304379    451.20102    2832.8511   -2.7497473    33.237465     420.7133            0 
  311500       311500    160.09008    1.0691106     37341803 0.00071341028    448.16716    2833.6805   -3.2430515    34.682991    416.72722            0 
  312000       312000    159.88686    1.0558869     37331911 0.00071359931     450.5818    2833.0671   -3.8154103    32.238894    422.15832            0 
  312500       312500     159.7882   0.86789838     37342987 0.00071338766    453.29773    2834.3128   -1.8556688    32.071689    423.08171            0 
  313000       313000    160.18278   0.80166262     37347771 0.00071329627    447.87056    2834.7653   -1.6755364    33.241376    416.30472            0 
  313500       313500    160.04404   0.79459494     37375838 0.00071276063     448.3389    2833.1663   -3.0434848    33.032733    418.34965            0 
  314000       314000    159.71858   0.93076995     37399116  0.000712317    453.70663    2833.6843   -3.7498321    32.595331    424.86113            0 
  314500       314500    160.24867   0.64220415     37431757 0.00071169585    446.45746     2834.334   -2.4030532    33.185022    415.67549            0 
  315000       315000    160.11202   0.73141844     37456279 0.00071122991    447.48892    2833.3293   -3.4749791    33.292809    417.67109            0 
  315500       315500    159.96971   0.78024459     37467072 0.00071102503    449.24721     2832.967   -4.0889553    34.569217    418.76695            0 
  316000       316000     159.6129   0.72045719     37503141 0.0007103412    456.54411    2834.9471   -2.2202848    34.666013    424.09838            0 
  316500       316500    160.03595   0.77827823     37537514 0.00070969074    449.82339    2834.5302   -2.4345865    32.790478     419.4675            0 
  317000       317000    159.88807   0.77038992     37567405 0.00070912607    452.71384     2835.217   -2.2596724    33.218275    421.75524            0 
  317500       317500    159.89679   0.99309275     37538681 0.00070966867    452.76681       2835.4   -1.4825963    33.910477    420.33893            0 
  318000       318000     160.1954    1.1670675     37471526 0.0007109405    448.21844    2835.3012   -2.1485135    32.817135    417.54982            0 
  318500       318500     160.0022     1.501533     37406819 0.00071217032    451.16262    2835.3665   -1.8816264    32.273026    420.77122            0 
  319000       319000     160.4655    1.5362927     37351667 0.00071322188    442.69551    2833.8031   -2.7260311    32.435891    412.98565            0 
  319500       319500    160.05097     1.381401     37330721 0.00071362205    449.22001    2834.1506   -2.7977062    30.747788    421.26993            0 
  320000       320000    160.15418    1.2059017     37301608 0.00071417902      447.536    2834.0045   -2.9287949    32.760152    417.70464            0 
  320500       320500    159.98191    1.1937792     37272280 0.00071474098    450.65663    2834.5581   -3.3125385    33.238446    420.73072            0 
  321000       321000    159.67946    1.0164515     37295186 0.00071430199    454.34223    2833.7369   -2.7127014    35.108069    421.94686            0 
  321500       321500    160.05116   0.95532501     37355416 0.00071315029    449.92805    2834.8616    -2.572566    32.925303    419.57531            0 
  322000       322000    160.57511   0.84634297     37403406 0.0007122353    442.18186    2834.9226   -2.9609748    34.759051    410.38378            0 
  322500       322500    160.30889   0.78446958     37438350 0.00071157051    447.26044    2836.0343   -2.2168427    34.088419    415.38886            0 
  323000       323000    160.17654   0.88084289     37425641 0.00071181214    449.62913    2836.4309   -2.1330794    32.900479    418.86174            0 
  323500       323500    160.03161    1.0405998     37377889 0.00071272151    451.54916    2836.1913   -2.8145803    34.203065    420.16068            0 
  324000       324000    159.69888    1.1620053     37350881 0.00071323689    456.50139    2836.1855     -3.01366    35.644734    423.87031            0 
  324500       324500    160.60487    1.2024459     37324240 0.00071374596     442.1431    2835.3274   -3.0431808    32.655544    412.53074            0 
  325000       325000    159.80276    1.1083356     37293968 0.00071432532    454.27524    2835.5073   -1.6166703    34.749417    421.14249            0 
  325500       325500    160.15331   0.97540694     37289932 0.00071440265    449.14911    2835.6046   -2.6812607    33.478102    418.35227            0 
  326000       326000    160.17016   0.61653664     37304581 0.0007141221    449.30309    2836.0098   -2.6060922    32.984804    418.92438            0 
  326500       326500     159.9172    0.5941419     37341118 0.00071342337    452.66392    2835.6013    -3.224324    34.421561    421.46668            0 
  327000       327000    160.11484    0.4502526     37380113 0.00071267912    449.99494    2835.8772   -3.2933436    36.408078     416.8802            0 
  327500       327500      160.234   0.46435448     37406638 0.00071217376    448.16346    2835.8215   -2.9304938    34.553744    416.54021            0 
  328000       328000    160.21439   0.71220303     37406469 0.00071217698    448.77261    2836.1383   -2.6284644    32.291808    419.10926            0 
  328500       328500    159.82739   0.92565228     37388681 0.0007125158    454.42421    2836.0233   -2.6551742    35.633563    421.44583            0 
  329000       329000     159.6005     1.256627     37360594 0.00071305145    457.32253    2835.5406   -3.3713778    35.162931    425.53098            0 
  329500       329500    160.08759    1.1967709     37336804 0.00071350579    450.60428    2836.0806   -2.4105876    33.967036    419.04783            0 
  330000       330000    159.83633    1.0382728     37321477 0.0007137988    455.49875     2837.231   -1.9409512    33.998604     423.4411            0 
  330500       330500    159.66407   0.82756337     37318366 0.00071385832     457.2219    2836.3872    -2.810108     33.03365    426.99836            0 
  331000       331000    160.25513   0.50417029     37315928 0.00071390496    449.66594    2837.6388    -1.476501     32.10472    419.03773            0 
  331500       331500    160.08627   0.52943286     37294437 0.00071431634    451.81336      2837.27   -2.3367638    33.956253    420.19388            0 
  332000       332000    159.78135   0.52826662     37280775 0.00071457811    456.17961    2837.0926   -2.0562662    34.352404    423.88347            0 
  332500       332500    160.02623    0.6258255     37262596 0.00071492673    452.31307    2836.8751   -2.8538187    35.973442    419.19345            0 
  333000       333000    159.92772   0.97716543     37272632 0.00071473423    452.60447    2835.6985   -3.2410785     35.52039    420.32515            0 
  333500       333500    160.33048    1.2391076     37272088 0.00071474466    446.86302    2835.9587   -3.3112244    33.266552    416.90769            0 
  334000       334000    159.90281    1.1679194     37233626 0.00071548299    453.93971    2836.6626   -2.4751519    33.591841    422.82303            0 
  334500       334500    160.28334    0.8288267     37172417 0.00071666112     448.1826    2836.5758   -2.7042344    33.475846    417.41099            0 
  335000       335000    160.28155   0.72995107     37136625 0.00071735183     448.6075     2836.974   -2.5445501    34.463116    416.68894            0 
  335500       335500    159.71024   0.91366349     37117429 0.00071772281    456.49773    2836.3511   -2.3850096    33.971411    424.91133            0 
  336000       336000    160.14594    1.0899853     37112881 0.00071781078    449.25695    2835.6028    -3.351741    32.558129    420.05056            0 
  336500       336500    159.62211    1.5328023     37120550 0.00071766248    458.18383     2836.724   -3.0543275    33.175992    428.06217            0 
  337000       337000    160.20617    1.4308579     37134397 0.00071739486    449.48067    2836.7239   -2.4047979    34.275637    417.60983            0 
  337500       337500    159.80822     1.258693     37165639 0.00071679182    456.38428    2837.6976   -2.3984197    33.977929    424.80477            0 
  338000       338000     160.4445    0.9443773     37174965  0.000716612    446.56178    2837.3564   -2.8119781    34.954212    414.41955            0 
  338500       338500    160.00433   0.99620782     37176908 0.00071657455    453.59865    2837.8343   -2.5280105    33.883979    422.24268            0 
  339000       339000    160.42641   0.78602122     37191557 0.00071629231    446.90537    2837.4304   -2.6368834    35.753949    413.78831            0 
  339500       339500    159.69767   0.75279488     37193074 0.00071626308    458.46318    2838.1292   -2.4175934    34.580584    426.30019            0 
  340000       340000    160.20683   0.85505365     37189308 0.00071633562     451.3358    2838.5889   -2.3162314    34.454828     419.1972            0 
  340500       340500    160.27347   0.63962736     37199073 0.00071614758    448.92631    2837.1724   -3.3498663    34.562578     417.7136            0 
  341000       341000    160.08037   0.85023904     37222190 0.0007157028    451.23595    2836.6046   -3.9856965    33.262747     421.9589            0 
  341500       341500    160.07742   0.68507275     37265643 0.00071486828    451.67081    2836.9956    -3.960675    34.250483    421.38101            0 
  342000       342000    160.12823   0.98555188     37325350 0.00071372475    451.40605    2837.4879    -2.195977    35.319783    418.28224            0 
  342500       342500    160.04455    1.3410787     37388561 0.00071251808    452.97259    2837.8076   -2.8670858    34.516212    421.32346            0 
  343000       343000    159.86483     1.343581     37418252 0.0007119527     455.3988    2837.5557   -3.6131399    33.167827    425.84412            0 
  343500       343500    159.94258    1.4553418     37424305 0.00071183756    453.17403    2836.4896   -2.9582618    34.367356    421.76494            0 
  344000       344000    160.01448    1.4679375     37428378 0.00071176009    454.58207     2838.969   -2.4329002    35.451045    421.56392            0 
  344500       344500    160.22861    1.6294977     37425838 0.0007118084    451.07362    2838.6513   -2.7942047    32.622946    421.24488            0 
  345000       345000    160.25127    1.5126926     37413732 0.00071203872     449.7826     2837.698   -2.8452856    33.125212    419.50267            0 
  345500       345500      160.177     1.467373     37429423 0.00071174023    452.23599    2839.0445   -2.3117255    34.516479    420.03124            0 
  346000       346000    160.27291    1.2422172     37472388 0.00071092416    449.46352    2837.7013   -3.1727807    33.733344    418.90295            0 
  346500       346500    160.18861   0.96705784     37505142 0.0007103033    450.78083    2837.7624   -3.7385901    34.790189    419.72923            0 
  347000       347000    160.26886   0.84662652     37517761 0.00071006438    448.55994    2836.7374   -3.9731081    34.666623    417.86642            0 
  347500       347500    160.17906   0.87363902     37495625 0.00071048358    452.07019    2838.9095   -2.5854124    32.260647    422.39495            0 
  348000       348000    159.57628    1.0776578     37457663 0.00071120364    459.63218    2837.4894    -3.942858    34.952678    428.62236            0 
  348500       348500    159.88966    1.2335217     37435199 0.0007116304    455.58037    2838.1073   -3.5929794    34.253632    424.91972            0 
  349000       349000    160.45309    1.2616797     37459838 0.00071116234    448.26155    2839.1843   -2.1836675    32.494647    417.95057            0 
  349500       349500     160.4136    1.2228984     37534457 0.00070974854    448.30298    2838.6372   -2.6104125    34.244852    416.66854            0 
  350000       350000    159.62418   0.85693296     37613194 0.0007082628    460.49089    2839.0619   -1.9259677    36.074715    426.34214            0 
  350500       350500    159.74516   0.88763676     37703145 0.00070657305    459.41149    2839.7852   -1.8942528    33.884942     427.4208            0 
  351000       351000    160.12878   0.66427693     37763894 0.00070543641    454.76362    2840.8537   -1.1714654    35.320567    420.61452            0 
  351500       351500    160.04725   0.60559364     37771604 0.00070529242     456.3238     2841.199  0.092505024    33.871134    422.36016            0 
  352000       352000     159.5874   0.82733692     37766330 0.00070539091    462.98597    2841.0089   -1.8864961    34.390609    430.48186            0 
  352500       352500    160.18388   0.95309656     37768277 0.00070535454    452.96824    2839.8794   -2.3832812    33.806856    421.54466            0 
  353000       353000    159.84424    1.1599973     37782995 0.00070507978    458.09624    2839.9463   -3.3801891    33.569666    427.90677            0 
  353500       353500    160.30423    1.2091264     37806089 0.00070464909    448.71016    2837.4146   -5.1993331    32.257994     421.6515            0 
  354000       354000    160.32505    1.3726013     37851817 0.0007037978    450.13619    2839.1508   -3.4011118    32.470302      421.067            0 
  354500       354500    160.48699    1.4942083     37888755 0.00070311168    449.21098    2840.6388   -2.0280213     32.83384    418.40517            0 
  355000       355000    160.16544    1.4570796     37925398 0.00070243234    454.27257    2840.9089    -2.840669    33.278158    423.83508            0 
  355500       355500      159.879    1.3296153     37987480 0.00070128438    458.84771    2841.2158   -2.2908275    34.515931    426.62261            0 
  356000       356000    160.24443    1.2073553     38026747 0.00070056021    453.51674    2841.3302   -2.5826134    36.459818    419.63953            0 
  356500       356500    159.32469    1.4095274     38063010 0.00069989278     467.4684    2841.5767   -2.2418076    32.013358    437.69685            0 
  357000       357000    160.10804    1.2578077     38089839 0.0006993998    455.79484    2841.5759   -2.7271631    34.851868    423.67013            0 
  357500       357500     160.1905    1.1797622     38100195 0.0006992097    453.78306    2840.7929   -2.8584876    35.740369    420.90118            0 
  358000       358000    159.91452   0.97618833     38090058 0.00069939578    458.30566     2841.203   -2.4501958    34.317276    426.43858            0 
  358500       358500    160.23914   0.66536427     38078121 0.00069961503    453.11279    2840.8473   -3.0887423    35.869301    420.33223            0 
  359000       359000    160.08283   0.51123923     38119208 0.00069886094    455.32918    2840.7345   -2.8784466    39.321818    418.88581            0 
  359500       359500     159.7786   0.50903511     38122767 0.0006987957    459.99553    2840.8675   -2.8041497    34.777833    428.02184            0 
  360000       360000    160.20866   0.46188628     38096045 0.00069928587    453.55437    2840.8347   -2.8040721    34.987925    421.37052            0 
  360500       360500     160.0895   0.54781312     38072397 0.00069972022    456.19969    2841.7045   -2.3103494    34.840627    423.66942            0 
  361000       361000    160.10517   0.69832491     38077943 0.00069961831    455.77649    2841.5148   -3.0235426    35.723742    423.07629            0 
  361500       361500    159.90618   0.97885037     38119277 0.00069885969    458.92483    2841.6979   -1.9408467    36.924279     423.9414            0 
  362000       362000    159.81808    1.1538966     38153767 0.00069822794    460.52508    2841.9853  -0.69144119     36.36859    424.84794            0 
  362500       362500    160.33521     1.056581     38218838 0.00069703913    453.46816    2842.6343   -2.5176526     35.05264    420.93318            0 
  363000       363000    159.87923    1.1546279     38315324 0.00069528385    459.10556     2841.477   -3.0913712    35.674025    426.52291            0 
  363500       363500    159.97784    1.0931889     38404469 0.00069366994    457.38067    2841.2216   -2.9473694    33.776323    426.55171            0 
  364000       364000    160.06284    1.3110886     38450604 0.00069283764    456.91286    2842.0204   -3.1647309    35.324422    424.75317            0 
  364500       364500    160.04247    1.2437174     38448217 0.00069288065    456.18619    2840.9901   -4.0875169    37.238882    423.03483            0 
  365000       365000    160.14662    1.1813082     38409250 0.00069358361    454.87056    2841.2264   -4.9695035    38.495525    421.34454            0 
  365500       365500    159.93033    1.3941716     38384759 0.00069402613    458.17737    2841.3103    -4.453839    34.736176    427.89504            0 
  366000       366000    159.94164    1.0043646     38355593 0.00069455388    459.37877    2842.6803   -2.5796576    33.666604    428.29183            0 
  366500       366500    160.29014    0.9895603     38286297 0.00069581099    453.67587    2842.1704   -3.4905389    34.078384    423.08802            0 
  367000       367000    159.86291   0.80571566     38246207 0.00069654033    459.36068     2841.489   -4.1666296    34.677975    428.84934            0 
  367500       367500    159.77007   0.89313935     38220053 0.00069701699     461.2714    2842.0163   -3.7446849     35.31656    429.69952            0 
  368000       368000    159.66672   0.92898144     38194988 0.00069747438    463.87518    2843.0801  -0.86821976    34.471944    430.27146            0 
  368500       368500    160.01899   0.93375447     38184084 0.00069767357     457.9287    2842.3827   -2.1147097    33.450301    426.59311            0 
  369000       369000    159.94258   0.87425076     38205882 0.00069727552    458.69931    2842.0148   -2.4696083    34.997495    426.17143            0 
  369500       369500    159.42778   0.84170765     38212677 0.00069715152    466.12629    2841.7707   -2.9781995     35.15546    433.94903            0 
  370000       370000    160.23818   0.58290841     38231017 0.00069681708    453.26791    2840.9882   -4.0510463     36.12651    421.19245            0 
  370500       370500    159.87937   0.79319677     38268394 0.00069613649    459.57759    2841.9512   -3.5904329    36.949113    426.21891            0 
  371000       371000    159.50983   0.95778827     38281603 0.0006958963    464.87999    2841.7471   -2.9639543    36.374339    431.46961            0 
  371500       371500    160.15045   0.89128627     38301390 0.00069553679    455.00625    2841.4192   -3.8823161    37.369285    421.51928            0 
  372000       372000    159.69233    1.1928633     38303970 0.00069548994    463.10103    2842.6875   -3.4638727    36.390091    430.17481            0 
  372500       372500    160.20907    1.0676788     38327845 0.00069505671    455.73578    2843.0222   -3.7564112    35.375408    424.11678            0 
  373000       373000    160.06567    1.0224717     38381157 0.00069409127      458.648    2843.7977   -2.4230999    36.637467    424.43363            0 
  373500       373500    160.01953    1.0084322     38438421 0.00069305723    459.97622    2844.4383    -2.513229    35.813432    426.67602            0 
  374000       374000    160.46643   0.83404169     38507240 0.00069181863    453.68636    2844.8078   -2.0032562    36.390436    419.29918            0 
  374500       374500    160.13908   0.92101739     38530789 0.00069139581    457.66442    2843.9079     -2.90019    37.857838    422.70677            0 
  375000       375000    159.68817   0.96499421     38540268 0.00069122575    464.92342    2844.4479    -2.411901     35.33894    431.99638            0 
  375500       375500    160.59793    1.0090881     38554338 0.0006909735    451.12021    2844.2011   -2.4266006    34.867009    418.67981            0 
  376000       376000    159.91513    1.0082496     38572395 0.00069065003    460.89255    2843.7989   -3.1088755    34.814863    429.18656            0 
  376500       376500    160.61427   0.73135382     38576250 0.00069058101    450.52171    2843.8461   -3.7462806    36.777928    417.49007            0 
  377000       377000    159.60932   0.94222813     38581539 0.00069048635    465.83698    2844.1866   -2.3599835    37.084891    431.11207            0 
  377500       377500    159.89199   0.97812513     38583353 0.00069045389    462.15216    2844.7138   -2.6702922    36.407326    428.41513            0 
  378000       378000    160.68283    1.1701352     38610310 0.00068997181    449.52441    2843.8704   -3.1694331    35.441746     417.2521            0 
  378500       378500    159.27122    1.2797104     38643679 0.00068937603    470.28831    2843.5998    -3.627963    35.475037    438.44124            0 
  379000       379000    160.37756    1.0428204     38664767 0.00068900003     454.3418    2844.1389   -3.4653196    37.613477    420.19364            0 
  379500       379500    159.66689    1.0549909     38655729 0.00068916112    464.50567    2843.7131   -3.4247549    38.129191    429.80124            0 
  380000       380000    160.51251    1.0803481     38628782 0.00068964188    450.83278    2842.6409   -4.7684939    34.609136    420.99213            0 
  380500       380500     160.3024    1.1901101     38634174 0.00068954564    455.11565    2843.7928   -2.8950956    35.364597    422.64614            0 
  381000       381000    160.05192    1.1590848     38659733 0.00068908976    458.18913    2843.1339   -3.4643378    36.576757    425.07671            0 
  381500       381500    160.11947    1.0850321     38684399 0.00068865038    457.43043    2843.3818   -2.2084961    36.483369    423.15556            0 
  382000       382000    160.13299   0.87237258     38723801 0.00068794966    458.59082    2844.7436   -2.4953744    37.527535    423.55866            0 
  382500       382500    160.11105   0.90612612     38763801 0.00068723978    459.41739    2845.2433   -2.1458441    37.781752    423.78148            0 
  383000       383000    159.93664   0.83463291     38795164 0.0006866842    461.27328    2844.5002   -3.1775409    35.069033    429.38179            0 
  383500       383500    159.79699   0.81737478     38828991 0.00068608597    462.53281    2843.6788   -3.8225143    34.409757    431.94556            0 
  384000       384000    159.89666   0.73452691     38850959 0.00068569803     462.0185    2844.6497   -2.9175003    36.103643    428.83236            0 
  384500       384500      160.156   0.71602695     38850097 0.00068571324    458.48525     2844.981   -1.9249168    36.119324    424.29085            0 
  385000       385000     159.4747   0.78177906     38859296 0.00068555092    469.03288    2845.3764   -2.6539297    35.871733    435.81507            0 
  385500       385500     159.8456   0.61926759     38864656 0.00068545637    463.17436    2845.0448   -2.6149812    37.012252    428.77709            0 
  386000       386000    160.02561   0.65690254     38848823 0.00068573572    460.21958    2844.7723   -2.6748136    37.342839    425.55155            0 
  386500       386500    159.39846    1.0577163     38848033 0.00068574967    470.00341    2845.2109   -2.7044647    35.865168    436.84271            0 
  387000       387000    159.58961    1.1794007     38845952 0.00068578641    466.02287    2844.0787   -2.4963046    36.481525    432.03765            0 
  387500       387500    160.08887   0.89960846     38847763 0.00068575445    459.15543    2844.6508   -2.8095342    37.187237    424.77772            0 
  388000       388000    159.96415   0.88716804     38843606 0.00068582782    460.48141    2844.1184   -3.0678936    37.870372    425.67893            0 
  388500       388500    159.65964   0.95766176     38808996 0.00068643944    466.39215    2845.4915   -2.9357176    37.932437    431.39543            0 
  389000       389000    160.34388    1.0863436     38773009 0.00068707657    456.57613    2845.8714   -1.9730824    36.529287    422.01992            0 
  389500       389500    160.02882    1.2654571     38742544 0.00068761684     460.5431    2845.1436    -2.429713    35.659758    427.31305            0 
  390000       390000    160.37231    1.1176597     38723272 0.00068795905    455.89154    2845.6104   -2.5015495    35.963481    422.42961            0 
  390500       390500    159.73235    1.0750585     38725398 0.00068792129    465.55296    2845.7359   -2.1691443    37.173804     430.5483            0 
  391000       391000    160.43173    1.0397183     38724511 0.00068793705    454.33339    2844.9377   -3.0754209     35.57376    421.83505            0 
  391500       391500    160.17361      1.09435     38752179 0.00068744589    458.09445    2844.8526   -2.9647128     34.71799    426.34117            0 
  392000       392000    160.29061    1.0195687     38779058 0.00068696938    456.26494    2844.7665   -3.3430484    36.575538    423.03245            0 
  392500       392500    159.87059   0.90219701     38776479 0.00068701508    462.10592    2844.3486   -3.0771973     36.01072    429.17239            0 
  393000       393000    159.82384     1.001025     38771951 0.00068709532    462.20886     2843.755   -4.3218913    36.946474    429.58428            0 
  393500       393500    159.55572   0.95314797     38755254 0.00068739134    468.28488    2845.8357   -2.5147376    35.676514    435.12311            0 
  394000       394000    159.89081    1.0754368     38746392 0.00068754855    463.16214    2845.7062   -3.1283431    37.195973    429.09451            0 
  394500       394500    159.62709    1.2742936     38743317 0.00068760313    466.52488    2845.1392   -2.0509241    35.781557    432.79425            0 
  395000       395000    159.93079    1.1530617     38738107 0.00068769561    462.87646    2846.0162   -2.5378332    36.057814    429.35648            0 
  395500       395500    160.39604    1.0027412     38749092 0.00068750066    456.39945     2846.472   -2.4374575    37.825805     421.0111            0 
  396000       396000    160.36021    1.0656457     38815707 0.00068632077    456.11423    2845.6529   -2.4185711    37.028053    421.50475            0 
  396500       396500    160.18794   0.95825111     38890552 0.00068499995    458.17567    2845.1473   -3.6682414    35.899914      425.944            0 
  397000       397000    160.01561   0.63307752     38960712 0.0006837664    461.16087    2845.5646   -2.6946103    37.558144    426.29734            0 
  397500       397500    159.61074   0.73702818     38984457 0.00068334992    467.95908    2846.3298   -2.8012681    37.909482    432.85086            0 
  398000       398000    160.19423   0.84407177     38982356 0.00068338675     458.6723    2845.7376   -2.9469956    37.132106    424.48719            0 
  398500       398500    159.79819    1.2098908     38985785 0.00068332666     466.1092    2847.2732   -1.9549677    35.294391    432.76978            0 
  399000       399000    159.70474    1.2457453     38985073 0.00068333913    468.21866      2847.99   -1.3199699    37.543753    431.99488            0 
  399500       399500    159.98864    1.2956863     38974313 0.00068352779    463.63423     2847.636   -1.6124781    38.265645    426.98106            0 
  400000       400000    160.52553     1.243901     38987838 0.00068329067    454.11661    2846.1187   -2.8148893    36.222856    420.70865            0 
  400500       400500    159.84422    1.1810291     39000703 0.00068306528    464.20156    2846.0514    -3.269059    36.206598    431.26402            0 
  401000       401000    160.57145     1.137172     39009437 0.00068291234    453.25193    2845.9382   -2.9977557    34.943131    421.30656            0 
  401500       401500    160.06592    1.0837442     39032456 0.00068250959    461.74703    2846.9005   -3.1748073    38.134581    426.78725            0 
  402000       402000    160.20355    1.2727723     39063769 0.00068196251    459.19141    2846.3956   -3.5438331    36.508233    426.22701            0 
  402500       402500     160.1016    1.2501542     39089657 0.00068151086    460.46818    2846.1533   -1.9984351    37.827767    424.63885            0 
  403000       403000    160.43611    1.2733052     39134933 0.0006807224    456.84187    2847.5115    -2.616627    36.911195     422.5473            0 
  403500       403500    159.72728    1.0138543     39178480 0.00067996579    467.93255    2848.0398   -1.7542047    36.033295    433.65346            0 
  404000       404000    160.23933   0.83056985     39213482 0.00067935884    460.44375    2848.1811   -2.1253751    37.470182    425.09894            0 
  404500       404500    159.54179    1.0807494     39232117 0.00067903615    470.92451    2848.2678   -2.0738669    37.378634    435.61974            0 
  405000       405000    160.65337    1.0214773     39230442 0.00067906515    452.88802    2846.7951   -3.1167845    36.698368    419.30643            0 
  405500       405500    160.11796    1.1948978     39224368 0.0006791703    461.57966    2847.5085   -3.2765013     38.46488    426.39128            0 
  406000       406000    159.64725     1.111962     39228161 0.00067910463    468.64694    2847.5617   -1.9672445    35.341876     435.2723            0 
  406500       406500     160.3233     1.013415     39239274 0.00067891231    458.39383    2847.3824   -2.1349089    34.905083    425.62365            0 
  407000       407000    159.70511   0.97003639     39253411 0.0006786678    468.37992    2848.1569   -2.0967318    38.801303    431.67534            0 
  407500       407500    159.70889     0.693058     39262711 0.00067850704    468.27891    2848.1121   -1.9071716    38.364483     431.8216            0 
  408000       408000    160.46071   0.46785997     39269037 0.00067839774    456.54525    2847.5814   -2.3506046    40.431611    418.46424            0 
  408500       408500    159.05837   0.71888368     39301233 0.00067784198    478.67099    2848.8108   -1.4307345    39.801372    440.30035            0 
  409000       409000    160.62936   0.53391599     39332654 0.00067730049    454.16791    2847.7172   -2.2405404     36.24503    420.16342            0 
  409500       409500    160.35762   0.70363896     39358401 0.00067685742    456.35245    2845.8525   -4.1969916      37.2644    423.28505            0 
  410000       410000    159.64006   0.71122179     39409801 0.00067597463    469.18107    2847.9886    -2.007984    37.880442    433.30861            0 
  410500       410500    160.11047   0.45054826     39448073 0.00067531882     461.6304    2847.4476   -1.4913733    37.061557    426.06022            0 
  411000       411000    159.94924   0.44749676     39485785 0.00067467383    463.48218     2846.897  -0.82744044     40.44606    423.86356            0 
  411500       411500    160.08167   0.48272836     39521908 0.00067405718    461.95171    2847.3397   -3.0110831    36.998955    427.96384            0 
  412000       412000    159.67375   0.72964626     39559566 0.00067341553    469.16126    2848.4709   -2.7407099    36.856165    435.04581            0 
  412500       412500    159.96068   0.81501333     39609779 0.00067256183    462.67249    2846.2576    -3.638268    38.653604    427.65715            0 
  413000       413000    159.64162   0.76867684     39661199 0.00067168987    468.67388    2847.5047   -3.3552372    38.633966    433.39516            0 
  413500       413500    159.85536   0.97753257     39691656 0.00067117447    467.28011    2849.2959   -1.9236965     38.93103    430.27278            0 
  414000       414000    159.52952    1.1567149     39696640 0.00067109019     471.0588    2848.2192    -2.669105    39.364223    434.36368            0 
  414500       414500    160.07988    1.2943902     39688121 0.00067123425    461.52048     2846.882   -3.2195946    33.639422    431.10065            0 
  415000       415000    159.95306     1.220976     39681848 0.00067134036    464.69275    2848.1645   -2.6876317    36.459117    430.92126            0 
  415500       415500    159.99853    1.1741601     39678852 0.00067139105     464.6627    2848.8119   -2.2882953    37.512592     429.4384            0 
  416000       416000    159.80419    1.1894798     39693669 0.00067114043    467.27014    2848.5235   -1.9868716    35.123087    434.13392            0 
  416500       416500    160.31265   0.90720768     39700871 0.00067101867    458.76508     2847.595   -2.6892617    38.474815    422.97953            0 
  417000       417000    159.57617   0.84191682     39718208 0.00067072578    470.38129    2848.2369   -2.7961411    39.731519    433.44591            0 
  417500       417500    160.32298   0.77491786     39719912  0.000670697    459.34619      2848.33   -2.6448275    37.641307    424.34971            0 
  418000       418000    159.50663   0.73578192     39705429 0.00067094165    470.27464     2847.094   -4.5993687    39.178439    435.69557            0 
  418500       418500    159.56295   0.87007091     39680274 0.00067136698    469.09806    2846.7566   -4.4777854    39.585224    433.99062            0 
  419000       419000    160.48189    1.0398058     39626755 0.00067227373    456.02204    2847.3739   -3.9587792     37.37617    422.60465            0 
  419500       419500    159.55782    1.1520235     39585101 0.00067298112    470.11782       2847.7   -3.1565728    38.000017    435.27438            0 
  420000       420000    160.44824    1.1427887     39563357  0.000673351    456.83562     2847.686   -2.9176934    37.280232    422.47308            0 
  420500       420500    159.84984    1.3664579     39568636 0.00067326116    465.31442    2847.2479    -3.046939    36.901724    431.45963            0 
  421000       421000    159.81364     1.245889     39569671 0.00067324355    467.97762    2849.3718   -1.6804525    36.354329    433.30375            0 
  421500       421500    160.47661    1.0739965     39558963 0.00067342579    456.55922    2847.8324   -3.2980993    37.323267    422.53405            0 
  422000       422000    160.07202    1.3330737     39566369 0.00067329974    462.48624    2847.7305   -3.3380937    38.423223    427.40111            0 
  422500       422500    159.97066    1.4771058     39580061 0.00067306683    464.36618       2848.1   -2.7519745    36.326137    430.79202            0 
  423000       423000    160.48215    1.5545977     39602405 0.00067268707     456.7152    2848.0709   -2.6422362    36.412772    422.94466            0 
  423500       423500    160.00862     1.405007     39638269 0.00067207845    463.45537    2847.7549   -3.1229279    37.994109    428.58419            0 
  424000       424000    159.82458      1.44671     39696546 0.00067109179    466.98053    2848.5377   -1.6608843    37.235994    431.40542            0 
  424500       424500    160.00093     1.276531     39757016 0.00067007107    465.06154    2849.2465   -2.0914018    37.043576    430.10937            0 
  425000       425000    159.90238    1.0425181     39814756 0.00066909931    466.49629    2849.2127   -1.4370705    37.907903    430.02545            0 
  425500       425500    160.13423   0.99801994     39873623 0.0006681115    463.30419    2849.4755   -1.6667676    38.447916    426.52304            0 
  426000       426000    159.70002    1.2626406     39896683 0.00066772533    468.69744    2848.3985   -3.4341129    36.665456     435.4661            0 
  426500       426500     160.1338    1.4424306     39923593 0.00066727526    461.25212     2847.417   -3.4038715    36.985291     427.6707            0 
  427000       427000    159.75753    1.2887656     39971068 0.00066648271    469.29587    2849.8539   -1.9209763    40.634974    430.58188            0 
  427500       427500    159.89319     1.015025     40005468 0.00066590962    467.36685    2849.9464   -1.8386585    37.169402     432.0361            0 
  428000       428000    160.69056     0.772862     40031801 0.00066547159    454.50859    2848.9698   -2.1789104    35.806225    420.88128            0 
  428500       428500    160.01012   0.80313162     40043905 0.00066527043    464.69791    2849.0199   -3.0088958     37.69089    430.01592            0 
  429000       429000    159.70957   0.75575564     40048539 0.00066519346    469.15255    2848.9959   -2.7713684    38.034716     433.8892            0 
  429500       429500    160.19114   0.83581164     40052742 0.00066512365    461.68288    2848.7021   -3.0201914    39.501718    425.20135            0 
  430000       430000    160.03798    1.0524588     40045845 0.0006652382    464.30443    2849.0415   -2.7691267    38.365497    428.70805            0 
  430500       430500    160.22185      1.15515     40036573 0.00066539226    462.60662    2850.0836   -2.0514201    36.973241     427.6848            0 
  431000       431000    159.97787    1.2304072     40054371 0.00066509659      465.981    2849.8224   -2.0021037    37.109885    430.87321            0 
  431500       431500    159.94443    1.2756961     40083171 0.00066461872    467.14964    2850.4928   -1.5374538    39.039677    429.64742            0 
  432000       432000     160.2249    1.0447845     40099072 0.00066435517    462.03351    2849.5559   -2.7246807    39.191904    425.56629            0 
  432500       432500     160.3324   0.98127927     40118394 0.0006640352    460.72193    2849.8461   -1.4740672    39.404917    422.79108            0 
  433000       433000    160.19774    1.0420115     40122398 0.00066396894    462.06432     2849.182   -3.4628426    39.482929    426.04423            0 
  433500       433500    159.64124    1.1247407     40130116 0.00066384124    470.43768     2849.263   0.97899339    37.500145    431.95855            0 
  434000       434000     160.2034   0.98517263     40166349 0.00066324241    462.16109    2849.3631   -2.1993692    38.126347    426.23411            0 
  434500       434500    159.53935    1.2669026     40185058 0.00066293361    472.08498     2849.392   -3.5764406    37.879118     437.7823            0 
  435000       435000       159.87    1.0986523     40204699 0.00066260975    466.57363    2848.8076   -3.6540381    36.780368     433.4473            0 
  435500       435500    160.23722    1.1422483     40178643 0.00066303946    461.12817     2848.834   -3.7774018    38.444202    426.46137            0 
  436000       436000    159.82706    1.3092749     40118149 0.00066403926    467.16548    2848.7596   -3.9089562    37.175175    433.89926            0 
  436500       436500    159.76569    1.4688527     40058641 0.00066502571    468.52498    2849.2047   -3.0690265    37.835783    433.75823            0 
  437000       437000    160.04568    1.4565583     40043535 0.00066527658    464.68492    2849.5368   -2.3589504    37.154857    429.88902            0 
  437500       437500    160.16869    1.2777728     40070280 0.00066483254    463.21099    2849.8958   -1.2737998    35.975337    428.50945            0 
  438000       438000     160.2271     1.313917     40112200 0.00066413775    462.64067    2850.1958   -2.5332058     36.82818    428.34569            0 
  438500       438500    159.67009    1.1036194     40150020 0.00066351214    470.10655    2849.3616   -3.3021703    38.393593    435.01512            0 
  439000       439000    159.96215    1.0964807     40197268 0.00066273224    466.72277    2850.3299   -3.1174168    40.541663    429.29853            0 
  439500       439500     160.2082     0.968433     40249715 0.00066186868     461.9571    2849.2307   -3.0572944    38.769546    426.24485            0 
  440000       440000    160.58516    1.0040031     40291344 0.00066118485    457.07545     2849.966   -3.1315608    35.746752    424.46026            0 
  440500       440500    159.98767    1.1681583     40299514 0.0006610508    467.60009    2851.5874   -1.3188789    39.515086    429.40389            0 
  441000       441000    159.95763    1.0119101     40254412 0.00066179146    467.70218    2851.2419   -2.0515852    39.390074    430.36369            0 
  441500       441500    160.36907   0.97455749     40192991 0.00066280277    461.33473    2851.0054   -1.7831679    39.173917    423.94398            0 
  442000       442000    160.29699    1.1120522     40129080 0.00066385838    461.62331    2850.2198   -2.1766227    38.364646    425.43528            0 
  442500       442500    160.28812    1.0599412     40104346 0.0006642678    461.84757    2850.3119   -2.6024355    38.163856    426.28615            0 
  443000       443000    159.46091    1.2515021     40108015 0.00066420704    474.89607    2851.0342    -2.180401    38.804406    438.27206            0 
  443500       443500    160.21273    1.3087048     40130694 0.00066383167    463.41206    2850.7531   -2.0846762    38.214814    427.28193            0 
  444000       444000     159.9962    1.2364326     40166143 0.0006632458    465.82127    2849.9358   -2.9600815    37.203228    431.57812            0 
  444500       444500    160.51666    1.0776887     40201534 0.00066266192    457.90069    2849.7706   -3.0701556    37.838993    423.13185            0 
  445000       445000    159.98893    1.2686502     40244506 0.00066195435     466.6234    2850.6295   -2.3633694     37.83041    431.15636            0 
  445500       445500    160.14266    1.3370187     40307623 0.0006609178    464.41861    2850.7155   -2.5622346    35.594515    431.38633            0 
  446000       446000    160.17358     1.131464     40365656 0.00065996763    463.44333    2850.2009   -3.0510638    39.413177    427.08121            0 
  446500       446500    159.49431    1.1508557     40385308 0.00065964648    473.62047    2850.2562   -3.4675282     39.57617    437.51183            0 
  447000       447000    159.84356    1.1559451     40382891 0.00065968596    469.09415    2850.9341   -2.1179099    37.618644    433.59342            0 
  447500       447500    160.38307   0.94383426     40388274 0.00065959802    461.20775     2851.087   -2.9076029    38.608085    425.50727            0 
  448000       448000    159.85096    0.9527112     40408858 0.00065926203    468.83441    2850.7847   -3.1661331    38.239609    433.76093            0 
  448500       448500    160.09245    0.9247274     40451817 0.00065856192    464.39695    2849.9457   -3.2706164    40.215641    427.45192            0 
  449000       449000    160.10437    1.0255819     40497640 0.00065781675    465.57258     2851.299    -2.665322     40.70671     427.5312            0 
  449500       449500    159.91244   0.81353024     40535842 0.0006571968    467.33989    2850.2063   -3.3046172    38.298405    432.34611            0 
  450000       450000    159.80869   0.99441935     40556601 0.00065686042    468.89733    2850.2177   -2.4801556    39.937113    431.44037            0 
  450500       450500    159.90892    1.0091841     40576970 0.00065653068    468.34242    2851.1563   -1.6118257    39.563319    430.39093            0 
  451000       451000    160.03845   0.95944882     40602599 0.00065611627    466.57061    2851.3147   -1.9089193    38.632847    429.84668            0 
  451500       451500    159.93455    1.0634447     40618703 0.00065585614    468.47641    2851.6722   -1.9980577    36.879347    433.59512            0 
  452000       452000    160.08636    1.0543577     40619988 0.0006558354    466.54729    2852.0053   -2.4079003    39.292372    429.66282            0 
  452500       452500    160.01802    1.1015637     40606653 0.00065605076    467.10141     2851.541   -1.8779925    38.655536    430.32387            0 
  453000       453000    160.09823    1.1918786     40620306 0.00065583026    466.51375    2852.1486   -1.5057106    37.853617    430.16585            0 
  453500       453500    160.24844    1.3850303     40610697 0.00065598544    464.72859    2852.6017   -2.4801518    38.405855    428.80288            0 
  454000       454000    160.14328    1.4959333     40592120 0.00065628566    466.10962    2852.4158   -1.7369708    38.426769    429.41982            0 
  454500       454500    159.71511    1.4119912     40555343 0.0006568808    472.59923    2852.5252   -2.2204511    41.153945    433.66574            0 
  455000       455000    160.68951   0.92812933     40525856 0.00065735875    459.08672    2853.5322   -1.3534177    39.783511    420.65663            0 
  455500       455500    159.60244   0.88887747     40517919 0.00065748751    475.10157    2853.3486   -1.6397302    38.025424    438.71588            0 
  456000       456000    160.29059   0.71466502     40520797 0.00065744082    462.23771     2850.739   -3.5123721    39.091676    426.65841            0 
  456500       456500    159.39002   0.80299063     40557230 0.00065685023    477.14315     2852.225   -3.0175542    39.987357    440.17335            0 
  457000       457000    160.42438    0.8800004     40583075 0.00065643192    461.37642    2851.8712   -2.1270261    40.893961    422.60948            0 
  457500       457500    159.93387   0.98495468     40574577 0.00065656941    468.83825    2852.0239   -2.8851194    39.705677    432.01769            0 
  458000       458000    160.71025    1.2150123     40546698 0.00065702085    457.76337    2852.5179   -2.1238105    38.875787     421.0114            0 
  458500       458500     159.8644    1.2836456     40516026 0.00065751823    470.84034    2852.9908   -1.8895467    39.871705    432.85818            0 
  459000       459000    159.75535    1.2201621     40501347 0.00065775655     472.1467    2852.6722   -2.0882874    39.145595    435.08939            0 
  459500       459500     160.3782    1.1198765     40492278 0.00065790385    462.84258    2852.6492   -2.0644831    39.283056    425.62401            0 
  460000       460000    160.30188    1.3095574     40501744 0.0006577501    463.80862     2852.478   -1.9715494    39.068506    426.71166            0 
  460500       460500     159.6375    1.5431444     40526818 0.00065734314    474.20891    2852.9784   -1.9383579    37.743151    438.40412            0 
  461000       461000    160.55731    1.4094765     40558965 0.00065682214    459.73122    2852.2069   -3.1921614    39.748083     423.1753            0 
  461500       461500    159.99342     1.478785     40599443 0.00065616727    468.44211    2852.5152   -2.3288197    36.741179    434.02975            0 
  462000       462000    160.30836    1.2181892     40650188 0.00065534816    464.77211    2853.5381   -1.8314857    39.522526    427.08107            0 
  462500       462500    159.77478    1.5081352     40660985 0.00065517414    472.84428    2853.6593   -1.6967624    40.769408    433.77163            0 
  463000       463000    160.34726    1.3130555     40706216 0.00065444615    464.59574    2853.9413   -1.3830122    38.812643    427.16611            0 
  463500       463500    160.08397    1.3576398     40716210 0.0006542855    468.00632    2853.4287   -2.3519398    36.292679    434.06558            0 
  464000       464000    160.12796    1.1049276     40714398 0.00065431463    467.49626     2853.574    -1.863899     38.50582    430.85433            0 
  464500       464500    159.42937   0.86017571     40688806 0.00065472617     478.8262    2854.4943  0.013885582    41.034555    437.77776            0 
  465000       465000    160.36214   0.64305804     40651311 0.00065533006    464.26821    2853.8356   -2.3166758     39.65812    426.92677            0 
  465500       465500    159.64885   0.53012533     40639435 0.00065552156    474.61776    2853.5563   -2.5611773    40.347426    436.83151            0 
  466000       466000     159.9313   0.44584243     40629155 0.00065568743    469.08778    2852.2351   -3.2801837    42.049731    430.31823            0 
  466500       466500    159.82432   0.54509591     40619563 0.00065584226    470.72752    2852.2809   -2.6826852     40.41537    432.99484            0 
  467000       467000     159.8016   0.58025103     40607396 0.00065603876    471.54089    2852.7557   -2.9216661    41.884083    432.57847            0 
  467500       467500    159.79861   0.91350076     40617272 0.00065587926     472.1487    2853.3188   -2.1969839    39.373611    434.97207            0 
  468000       468000    160.12504    1.1263326     40618461 0.00065586005    467.35308    2853.3875   -2.2062555    38.645719    430.91361            0 
  468500       468500    159.66779    1.0910535     40627298 0.00065571739    474.16435    2853.3852   -2.1400393    39.495228    436.80916            0 
  469000       469000    159.46568    0.9639505     40647386 0.00065539334    477.08769    2853.2968   -2.1070985    40.916135    438.27865            0 
  469500       469500    160.14144   0.68360413     40677761 0.00065490395    467.34924    2853.6279   -2.3256765    40.482879    429.19204            0 
  470000       470000    160.08134   0.36664586     40651453 0.00065532777    468.44339    2853.8265   -2.0857674    40.312258     430.2169            0 
  470500       470500    159.58081    0.4500399     40604006 0.00065609354    475.44441    2853.3691   -2.6652284     42.41878    435.69085            0 
  471000       471000    159.62715   0.65569466     40568690 0.00065666468    475.00896    2853.6242   -1.4969266    39.982525    436.52336            0 
  471500       471500    160.19024   0.61813911     40561039 0.00065678855     466.7322    2853.7381   -2.1028552    40.790712    428.04434            0 
  472000       472000    159.72243    0.7764853     40617687 0.00065587254    472.68006    2852.7151   -2.6499835     41.26506    434.06498            0 
  472500       472500    160.23742   0.95857482     40685159 0.00065478486    465.90492    2853.6138   -1.9948285    38.757576    429.14217            0 
  473000       473000    159.95571    1.0503917     40696042 0.00065460974    470.74405    2854.2552   -2.0140369    39.206207    433.55188            0 
  473500       473500     160.4322    1.0070029     40685242 0.00065478352    462.85175    2853.4632   -2.7634846    41.359455    424.25578            0 
  474000       474000    159.80571    1.1651027     40705615 0.00065445581    472.26743    2853.5434   -2.4190673    43.536352    431.15014            0 
  474500       474500     160.7921   0.90876275     40720009 0.00065422446    457.96036    2853.9346   -1.9364748    40.947682    418.94915            0 
  475000       475000    160.15952   0.92337532     40727483 0.0006541044    466.71887     2853.267   -2.9113929     39.27583    430.35443            0 
  475500       475500    159.81902   0.91217895     40745377 0.00065381714    472.02086    2853.4952   -1.9529993    39.983841    433.99001            0 
  476000       476000    159.58143   0.76908786     40728004 0.00065409604    475.31374    2853.2477   -2.6621884     41.54503     436.4309            0 
  476500       476500    160.41405   0.72659503     40673345 0.00065497504    462.58428    2852.9252   -3.7980373    40.119054    426.26326            0 
  477000       477000    160.50925   0.75517224     40639949 0.00065551327    460.19191    2851.9513   -3.3145801    40.206408    423.30008            0 
  477500       477500    159.84459   0.86360273     40621615 0.00065580913    472.38125    2854.2366   -2.0993778    42.255809    432.22482            0 
  478000       478000    160.04018   0.92656358     40599975 0.00065615868    469.37691    2854.1468  -0.95469005    40.356826    429.97477            0 
  478500       478500    159.83645    0.9867477     40604642 0.00065608326    472.04134    2853.7754   -2.2675369    39.891878      434.417            0 
  479000       479000    159.78245    1.0682178     40627302 0.00065571732    473.16864     2854.098   -2.3303735    40.218258    435.28075            0 
  479500       479500    160.39779    1.2710643     40652579 0.00065530962    463.87911    2853.9777   -2.6237233     37.90161    428.60122            0 
  480000       480000    160.35958    1.4483597     40681543 0.00065484305    463.47203    2853.0012   -3.0752997    38.777808    427.76953            0 
  480500       480500     159.6759    1.4263351     40712532 0.00065434461    474.16428    2853.5059   -2.8846156    40.168164    436.88073            0 
  481000       481000    160.00697     1.261927     40715157 0.00065430242    469.74727    2854.0222   -2.7721496    41.463436    431.05599            0 
  481500       481500    159.76319    1.3214743     40712545 0.0006543444    473.10048    2853.7428   -3.2448294     42.93691     433.4084            0 
  482000       482000    159.92318    1.0643609     40754570 0.00065366965    470.29422    2853.3207   -2.5417952    40.209767    432.62625            0 
  482500       482500     159.9004    1.2303935     40810589 0.0006527724    472.92772    2855.6148   -1.7146477    39.962198    434.68017            0 
  483000       483000    159.78473    1.2350742     40843491 0.00065224655    474.01852    2854.9818   -2.5852362    42.330444    434.27331            0 
  483500       483500    159.93127    1.3309469     40890020 0.00065150435    471.39249    2854.5395   -2.4994088    39.950804     433.9411            0 
  484000       484000    160.26485    1.2821983     40911320 0.00065116515    465.88126    2853.9989   -3.4880794    38.636127    430.73321            0 
  484500       484500    159.91635    1.2888792     40958246 0.00065041911    470.79393    2853.7185   -3.8486905    40.155023     434.4876            0 
  485000       485000    159.66173    1.2259594     41021764 0.00064941201     476.1794    2855.3099   -2.1588785    41.242348    437.09593            0 
  485500       485500     159.7796    1.0713016     41069744 0.00064865333    474.84296    2855.7299   -1.9498999    40.602079    436.19078            0 
  486000       486000    160.29584    1.0099651     41106925 0.00064806661    466.61446    2855.1939   -2.2439285    37.572084    431.28631            0 
  486500       486500    160.18664     1.014631     41156554 0.00064728514    468.08899    2855.0412   -2.5286177    41.219072    429.39854            0 
  487000       487000    160.04486   0.92398841     41213361 0.00064639294    470.45985    2855.2995   -2.4351232    41.039787    431.85519            0 
  487500       487500    160.01982   0.91915824     41242184 0.0006459412    470.82117    2855.2876   -2.6540568    39.813933    433.66129            0 
  488000       488000    159.80579    1.1899655     41236739 0.0006460265    473.62572    2854.9029   -3.0354206    42.418702    434.24243            0 
  488500       488500    160.38747    1.1265415     41247678 0.00064585516    464.85393    2854.7988   -2.9821719    43.003158    424.83294            0 
  489000       489000    159.81802    1.1454062     41234137 0.00064606727    473.98323    2855.4426   -2.6411563    42.352895    434.27149            0 
  489500       489500    160.18706    1.2353361     41202331 0.00064656599    467.47076    2854.4292   -3.9022174    40.322728    431.05025            0 
  490000       490000    159.89301    1.1290401     41163749  0.000647172    471.84808    2854.4249   -3.1301101    39.305451    435.67274            0 
  490500       490500    160.45331   0.81290566     41146503 0.00064744325    464.57485    2855.5008   -2.3468841    40.838723    426.08302            0 
  491000       491000    160.28855    0.9592553     41127066 0.00064774925    466.52637    2854.9971   -2.6414412    41.660153    427.50766            0 
  491500       491500    160.22328    1.0327358     41104697 0.00064810174    468.07926    2855.5774   -2.7885203    41.959047    428.90873            0 
  492000       492000    159.96711    1.0271891     41097919 0.00064820863    471.49384    2855.1749   -2.1663688    40.984137    432.67607            0 
  492500       492500    159.83219   0.99514772     41116785 0.00064791121    472.68256    2854.3532   -2.7380542    41.553002    433.86761            0 
  493000       493000    160.17944   0.72296037     41144481 0.00064747508    468.33794    2855.1828   -3.2838685    42.392051    429.22976            0 
  493500       493500    160.04028    1.0074302     41152048 0.00064735601    469.57768     2854.349   -3.6580624    41.962378    431.27337            0 
  494000       494000    160.00427   0.80232895     41149994 0.00064738834    472.24035     2856.475   -2.0293276    42.158054    432.11162            0 
  494500       494500    160.12791   0.84638255     41135387 0.00064761822    469.26388     2855.341   -2.6258572    41.177664    430.71207            0 
  495000       495000    159.97403   0.98950515     41152261 0.00064735266    472.20088    2855.9851   -1.9547811    40.843647    433.31201            0 
  495500       495500    159.68685   0.95502428     41183712 0.0006468583    476.79383    2856.2987   -2.0866678     41.91854    436.96196            0 
  496000       496000    160.24977    0.9814677     41175734 0.00064698362    468.17169    2856.0647   -1.9423575    42.030139    428.08391            0 
  496500       496500    160.63899   0.94737146     41141004 0.00064752979    462.98914    2856.6819   -1.7716462    42.625974    422.13482            0 
  497000       497000    160.00535    1.1031184     41112671 0.00064797605    471.01463    2855.2654   -1.9790993    42.488845    430.50489            0 
  497500       497500    160.03568   0.82487469     41135094 0.00064762283    472.08151    2856.7842   -1.3517432    43.212736    430.22052            0 
  498000       498000    159.16268   0.90561079     41147090 0.00064743401    484.77033    2856.4645   -1.9377142     44.10089    442.60715            0 
  498500       498500    159.62817   0.79241609     41162556 0.00064719076     477.6582    2856.2886   -2.8735303    43.542724      436.989            0 
  499000       499000    160.06503   0.69609308     41174725 0.00064699949    470.28703    2855.4271   -2.8520435    40.360831    432.77824            0 
  499500       499500    159.50443    0.7410901     41160115 0.00064722914     479.2685    2856.0551    -2.947175     43.46368      438.752            0 
  500000       500000    159.90453   0.82049575     41146518 0.00064744302    472.44788    2855.1964   -2.5843711    43.186498    431.84575            0 
  500500       500500    159.65078   0.91991958     41122234 0.00064782536    477.14879    2856.1162   -2.0477165    41.880971    437.31554            0 
  501000       501000    159.74395   0.99379065     41077933 0.00064852401    475.10971    2855.4655    -3.423074    42.326884     436.2059            0 
  501500       501500    159.94043   0.97955175     41055717 0.00064887494    471.23757    2854.5211   -4.1221008     41.80205    433.55763            0 
  502000       502000    160.56756   0.99695207     41042177 0.00064908901    462.72853    2855.3569   -3.1291637    40.284703      425.573            0 
  502500       502500    159.47955   0.90613989     41019133 0.00064945365    480.00585    2856.4217   -2.6415998     42.50101    440.14644            0 
  503000       503000    160.04366   0.93840157     40997558 0.00064979543    469.97906    2854.8008    -3.307996    41.239477    432.04758            0 
  503500       503500    160.34169   0.90410199     41005304 0.00064967268    466.22944    2855.4921    -3.172995    41.721714    427.68072            0 
  504000       504000    159.60037   0.98395196     40997275 0.00064979991    477.57659    2855.7927   -3.4094706    44.446129    436.53993            0 
  504500       504500    159.70972    1.0552112     40992977 0.00064986805     475.8371    2855.6828   -2.2558476    39.278772    438.81418            0 
  505000       505000    160.40827    1.0844765     40988831 0.00064993378    465.75289    2856.0076   -2.2006561    42.684211    425.26933            0 
  505500       505500     159.3625    1.1370473     41008075 0.00064962878    481.34452    2856.0163   -2.5237433    42.798583    441.06968            0 
  506000       506000    159.98139     1.198532     41000884 0.00064974273    472.49499    2856.3888   -1.4892077    40.523503     433.4607            0 
  506500       506500    159.86381    1.1057848     41003663 0.00064969868    474.15437    2856.2961   -2.0473588    40.785677    435.41606            0 
  507000       507000    159.91109    1.0186385     41026522 0.00064933668    472.81119    2855.6574   -3.2351563    40.292196    435.75415            0 
  507500       507500    159.83926    1.0343101     41028489 0.00064930556    473.95533    2855.7313   -2.6760412    43.009028    433.62234            0 
  508000       508000    159.92527   0.91616974     41031438 0.00064925889    472.97526    2856.0329   -2.7989067     46.50679    429.26737            0 
  508500       508500    159.57407     1.051393     41059951 0.00064880803    477.87107    2855.6954    -3.679209    41.619536    439.93075            0 
  509000       509000    159.81358   0.99712789     41086091 0.00064839524    475.94647    2857.3397   -1.7395555    41.133286    436.55274            0 
  509500       509500    160.00745   0.76657087     41077480 0.00064853117    472.87441    2857.1565   -2.0335928    43.270704     431.6373            0 
  510000       510000    159.97637   0.80804147     41060653 0.00064879694    472.38261    2856.2016   -2.8416548     43.20216     432.0221            0 
  510500       510500    159.96104    1.0383129     41046435 0.00064902168    472.62859    2856.2191     -2.39913    41.978471    433.04925            0 
  511000       511000    159.64654     1.115985     41031297 0.00064926112    478.26391    2857.1681   -2.0160314    42.412139    437.86781            0 
  511500       511500    160.39955   0.97471754     41001730 0.00064972932    465.22409     2855.349   -3.7655663    42.966263    426.02339            0 
  512000       512000    159.63776     1.249519     40999346 0.0006497671    476.98046    2855.7539   -3.7203029    42.447395    438.25337            0 
  512500       512500    159.80586     1.029925     41014984 0.00064951936    474.47562    2855.7539   -3.3253996    42.587719     435.2133            0 
  513000       513000    160.48016    1.1336027     41016607 0.00064949366    463.77662    2855.1026   -4.4669314    39.247039    428.99651            0 
  513500       513500     159.5047    1.4179242     41041131 0.00064910555    480.41024    2857.2009   -2.4726647    40.519348    442.36356            0 
  514000       514000    160.39593    1.3505649     41049283 0.00064897664    466.95287    2857.0238   -2.7326245     43.06317    426.62233            0 
  514500       514500    160.11081    1.3689778     41051970 0.00064893417    471.41655    2857.2389   -1.9343544    39.870091    433.48081            0 
  515000       515000    160.39302    1.2829352     41062572 0.00064876662    464.92703    2854.9545    -3.934854    42.651996    426.20989            0 
  515500       515500    159.81299     1.146052     41052972 0.00064891832    475.43792    2856.8224   -3.0103969    43.074739    435.37358            0 
  516000       516000    159.86477    1.2060438     41023326 0.00064938727    475.04564    2857.2016   -2.2202095    41.451178    435.81467            0 
  516500       516500    160.28744    1.2006427     40976883 0.00065012329    468.65231    2857.1066   -1.8727629    42.164378     428.3607            0 
  517000       517000    159.58755    1.2421225     40934313 0.00065079939     479.4338     2857.459   -2.0610849     42.73077    438.76411            0 
  517500       517500    160.28579    1.1006351     40938640 0.0006507306    468.72171    2857.1515    -1.967318    42.595342    428.09369            0 
  518000       518000    160.23162   0.87235583     40946753 0.00065060167    468.93487    2856.5574   -2.8292374    44.047088    427.71702            0 
  518500       518500    159.19777    1.0182068     40956059 0.00065045384    485.24739    2857.4645   -1.9534906    42.730269    444.47062            0 
  519000       519000    160.19881   0.77632781     40945705 0.00065061833    469.27159    2856.4051   -3.0617655    41.893885    430.43947            0 
  519500       519500    160.10921   0.88372206     40968156 0.00065026177    470.89833    2856.6968   -2.5611985    42.529674    430.92986            0 
  520000       520000    160.46918   0.65401794     41024789 0.00064936412    466.45939    2857.6218   -1.5178222    43.695809     424.2814            0 
  520500       520500    160.06159    0.8317567     41051349 0.00064894398    472.15584    2857.2448   -2.4164484    42.161474    432.41082            0 
  521000       521000     160.2392   0.83753496     41078651 0.00064851268    469.81241    2857.5479   -2.4278629    41.478453    430.76182            0 
  521500       521500    159.79147    1.0216467     41085703 0.00064840136     476.0653     2857.129    -2.976535    43.755833      435.286            0 
  522000       522000    160.70828    1.0879654     41096937 0.00064822413    461.91488    2856.6401   -3.9098723    42.608673    423.21608            0 
  522500       522500    159.79112    1.3321631     41095343 0.00064824927    474.74048    2855.7991   -4.2636931    41.785429    437.21875            0 
  523000       523000    160.27651    1.4396005     41115173 0.00064793661    468.35526    2856.6467   -3.6451406    42.130708     429.8697            0 
  523500       523500     159.8224    1.5640297     41152462 0.00064734951    476.33387    2857.8585   -2.0542648    41.813569    436.57457            0 
  524000       524000    159.94718    1.2781533     41194368 0.00064669097    473.71308    2857.0971   -3.1907014    42.611544    434.29224            0 
  524500       524500     160.6735     1.278144     41233728 0.00064607368     464.4742    2858.6811    -1.582646    39.299821    426.75702            0 
  525000       525000    159.89103    1.2551414     41264120 0.00064559782    475.83591    2858.3833   -1.9498421     44.31874    433.46701            0 
  525500       525500    160.03501    1.1766818     41268085 0.00064553579     473.7005    2858.3933   -2.0939676    41.782378    434.01209            0 
  526000       526000    160.32178    1.2338797     41246886 0.00064586757    469.00462    2857.9706   -1.9508711    42.252137    428.70336            0 
  526500       526500    160.04083    1.3589934     41264032 0.0006455992    473.23727    2858.0168   -2.6782784    42.880127    433.03542            0 
  527000       527000    160.22729    1.6268023     41249845 0.00064582123    469.45302     2857.011    -2.594434    39.139204    432.90825            0 
  527500       527500    160.16368     1.548767     41236506 0.00064603015    472.04489     2858.655   -1.6800997    42.418784    431.30621            0 
  528000       528000    160.20083    1.4398904     41224265 0.00064622197    470.29441    2857.4582   -2.7047802    43.598222    429.40097            0 
  528500       528500    160.29932    1.1701229     41226772 0.00064618268    469.64862      2858.28   -2.2365746    41.501806    430.38339            0 
  529000       529000    160.40975   0.99055284     41249120 0.00064583259    467.31678    2857.5935   -2.3271618    42.841065    426.80288            0 
  529500       529500    159.93214   0.82177069     41276795 0.00064539958    475.22168    2858.3816   -2.3283597    43.457082    434.09296            0 
  530000       530000    160.06211   0.83545266     41326730 0.00064461975    473.14979    2858.2464   -2.3713462     43.41828    432.10285            0 
  530500       530500    159.78342   0.92443243     41348625 0.0006442784    476.71623    2857.6601    -3.669762    41.869377    438.51662            0 
  531000       531000    159.74175    1.0591214     41391237 0.00064361511    477.74459    2858.0675   -2.2249952    42.454847    437.51474            0 
  531500       531500    159.93137   0.84067457     41431510 0.0006429895    474.88004    2858.0285   -2.8165727    45.324575    432.37203            0 
  532000       532000    159.62006   0.83572814     41397116 0.00064352372    480.34964    2858.8592   -2.4509257    42.618546    440.18202            0 
  532500       532500    160.45946   0.82061015     41317718 0.00064476034    467.52856    2858.5461   -2.1708044    43.269359    426.43001            0 
  533000       533000    160.05311   0.47899945     41279689 0.00064535433     474.4881    2859.4506   -1.2074662    44.523316    431.17225            0 
  533500       533500    159.79012   0.49724252     41257231 0.00064570562    478.26975    2859.3134   -1.6865818    44.929668    435.02667            0 
  534000       534000    160.28969   0.64116054     41235609 0.00064604419    470.39006    2858.8779   -2.0778428    43.588278    428.87962            0 
  534500       534500       160.37    0.8223621     41231677 0.0006461058    468.48104    2858.1656   -1.9218939    43.875746    426.52719            0 
  535000       535000    159.30551    1.2501541     41249816 0.00064582169    484.85248    2858.6749   -2.4329074    44.156532    443.12885            0 
  535500       535500    160.24548    1.3067923     41266229 0.00064556483    470.53439    2858.3635   -2.4333051    43.253124    429.71457            0 
  536000       536000    159.91635    1.3509004     41285679 0.0006452607    475.98847    2858.9131   -2.1954127     44.06005    434.12383            0 
  536500       536500    159.96676    1.3527946     41299205 0.00064504937    475.21654    2858.8923   -2.2326645    42.576591    434.87261            0 
  537000       537000    159.81721   0.98932136     41302294 0.00064500112    477.99632    2859.4437   -1.5374869    43.666844    435.86696            0 
  537500       537500    160.07667   0.86178156     41285109 0.0006452696    473.25864    2858.5722   -2.0618611    43.851946    431.46855            0 
  538000       538000    159.33206    1.1840752     41255865 0.00064572699    483.97849    2858.1966   -1.6614968    42.590063    443.04992            0 
  538500       538500    159.77721    1.1710506     41253762 0.00064575992    476.93079    2857.7821   -2.2169753    41.636682    437.51109            0 
  539000       539000    160.19561    1.1124608     41244963 0.00064589769    471.06613    2858.1521   -2.6950698      42.6081     431.1531            0 
  539500       539500    159.62527    1.2671023     41234821 0.00064605654    480.83826    2859.4255    -1.367714    44.725426    437.48054            0 
  540000       540000    160.24327   0.86742773     41263793 0.00064560293    470.84464    2858.6407   -2.0783819    44.510848    428.41218            0 
  540500       540500     159.6537   0.90398274     41319386 0.00064473431    479.52711     2858.538   -2.5316347    43.148324    438.91042            0 
  541000       541000    159.87074   0.62490161     41375570 0.00064385883    477.07747    2859.3224   -1.4644845    44.803267    433.73869            0 
  541500       541500    160.42399   0.63776462     41438171 0.00064288614    468.60099      2859.09  -0.65641274    45.017437    424.23997            0 
  542000       542000    159.73593   0.78091989     41472768 0.00064234984    478.67684     2858.913   -1.7889171    42.597228    437.86853            0 
  542500       542500    159.78309   0.79378802     41508045 0.00064180392    478.47472    2859.4136   -1.5149276    43.021654    436.96799            0 
  543000       543000    160.15138   0.70473155     41542710 0.00064126837    474.14521    2860.5721  -0.96303925    43.887994    431.22025            0 
  543500       543500    160.02989   0.83928994     41554732 0.00064108285    475.05428    2859.6708    -1.508963    42.255009    434.30823            0 
  544000       544000    159.90255   0.89269474     41540684 0.00064129964    477.11554    2859.8345   -1.5731386    45.803699    432.88498            0 
  544500       544500    159.81415     1.114301     41519168 0.00064163198    476.23306    2857.6348   -2.9031952    44.240801    434.89546            0 
  545000       545000    160.37191     1.191317     41547552 0.00064119363    468.65712    2858.3701   -2.2521511    42.045814    428.86346            0 
  545500       545500    160.60468    1.1862975     41553349 0.00064110418    465.42888    2858.6104   -2.6685731    40.675171    427.42228            0 
  546000       546000     159.9657    1.4059158     41552733 0.00064111369    476.23005      2859.89  -0.80735779    44.216313     432.8211            0 
  546500       546500    160.00536    1.4822422     41542513 0.00064127141    474.51499     2858.766   -3.1404634    42.254909    435.40054            0 
  547000       547000    160.19342    1.3811837     41543774 0.00064125195    471.75559    2858.8088   -2.4200914    43.267836    430.90785            0 
  547500       547500    159.72811    1.4075658     41549295 0.00064116674    479.31662    2859.4362   -2.2611404    44.504842    437.07292            0 
  548000       548000    160.20495    1.2146796     41569003 0.00064086276    471.58572    2858.8108   -1.2156776    43.937897     428.8635            0 
  548500       548500    159.80638    1.0210203     41613851 0.00064017209    477.33161    2858.6176   -3.1297601    45.462171     434.9992            0 
  549000       549000    159.93977    1.0425793     41647016 0.0006396623    475.38315    2858.6568   -2.7747325    45.142781     433.0151            0 
  549500       549500    160.11428   0.99676798     41652394 0.00063957971    472.53155    2858.4056   -3.5405949    42.456489    433.61566            0 
  550000       550000    159.65054    1.0294207     41639257 0.00063978149     479.1996    2858.1633   -2.8361427      42.6525    439.38325            0 
  550500       550500    159.98696    0.9988016     41601303 0.00064036518    474.86006    2858.8369   -3.1824229    42.539134    435.50334            0 
  551000       551000    159.80964    1.0483105     41581065 0.00064067686    477.37198    2858.7066   -1.8306986    43.690224    435.51246            0 
  551500       551500    160.15267    1.0378233     41572920 0.00064080238    472.40308    2858.8491   -3.2918891    44.818817    430.87616            0 
  552000       552000    159.99651    1.1864795     41539125 0.00064132372    473.97936    2858.0985   -2.8522474    42.703186    434.12842            0 
  552500       552500     159.9971    1.2177662     41539389 0.00064131964     475.5032    2859.6311   -2.1691217    44.390485    433.28183            0 
  553000       553000    160.59288    1.0879784     41576846 0.00064074187    466.14203    2859.1476   -2.5215158    43.330073    425.33347            0 
  553500       553500    159.53053      1.10102     41610152 0.00064022901    481.18132    2858.3568   -3.7210121    43.283472    441.61886            0 
  554000       554000    160.17679   0.87236186     41636719 0.00063982049    473.03501    2859.8405   -2.4385395    43.919978    431.55357            0 
  554500       554500    159.52616   0.90949592     41641522 0.00063974669    482.91831    2860.0286   -2.2595249    46.013966    439.16387            0 
  555000       555000    159.79229    1.0431499     41622930 0.00064003246     477.9878    2859.0639    -3.659972    46.173479     435.4743            0 
  555500       555500    159.60806    1.3984048     41635723 0.0006398358    481.59686    2859.9277   -1.8649587    44.365458    439.09636            0 
  556000       556000    159.79775    1.3629924     41633026 0.00063987724    478.63121    2859.7886   -2.2409443    43.594943    437.27721            0 
  556500       556500    160.22257    1.2910599     41632705 0.00063988217    472.03518    2859.5228   -3.3001873    44.239428    431.09594            0 
  557000       557000    160.50686    1.2185443     41647751 0.00063965101    466.23893    2857.9629   -3.8768311      42.4436    427.67216            0 
  557500       557500    159.74801    1.1584322     41651180 0.00063959835    477.36478     2857.781   -3.7819858    42.643414    438.50335            0 
  558000       558000    160.29547   0.94058332     41667935 0.00063934116    471.14675    2859.7207   -1.6120991    43.006132    429.75272            0 
  558500       558500    159.60669   0.85007507     41681665 0.00063913057     482.0188    2860.3292   -2.1240473    45.594359    438.54849            0 
  559000       559000    159.75884   0.85058774     41687504 0.00063904104    478.52796    2859.1055   -2.8364744    46.386912    434.97752            0 
  559500       559500    159.97281   0.90308135     41709581 0.0006387028     476.0968    2859.8628   -1.9872558    42.649246    435.43481            0 
  560000       560000    160.30929    0.6826555     41732628 0.00063835006    470.65483    2859.4348   -3.0256924    43.896734    429.78379            0 
  560500       560500    159.32954   0.79962696     41759825 0.00063793433    485.33528    2859.5158   -2.9307196    42.720701     445.5453            0 
  561000       561000    160.32317   0.59182466     41776712 0.00063767647    469.93768    2858.9243   -3.1510339    47.854227    425.23449            0 
  561500       561500    159.62005   0.67236802     41767081 0.0006378235    480.99437    2859.5038   -3.0537153    45.188171    438.85991            0 
  562000       562000    160.68014   0.83406973     41750953 0.0006380699    464.94299    2859.2488   -2.9816516    42.443847     425.4808            0 
  562500       562500    159.94275    1.1028239     41754057 0.00063802245    477.07419    2860.3922    -2.143132    42.144706    437.07261            0 
  563000       563000     160.0763    1.2543717     41753305 0.00063803395    474.73974    2860.0477   -2.8046287    45.795988    431.74839            0 
  563500       563500    159.92089    1.3457095     41749123 0.00063809786    476.97637    2859.9687   -2.2887844     44.80036    434.46479            0 
  564000       564000    160.33072    1.2954378     41732399 0.00063835356    472.47641    2861.5756   -2.1178775     42.59429          432            0 
  564500       564500    160.24298    1.1733994     41716790 0.00063859242    473.00844    2860.8002   -1.9237357    44.401719    430.53046            0 
  565000       565000    159.71355    1.0620148     41691702 0.0006389767    480.22112    2860.1238   -1.4472577     45.91283    435.75555            0 
  565500       565500    160.27896   0.95673381     41674542 0.0006392398    472.79239    2861.1204   -1.6507903    45.219859    429.22332            0 
  566000       566000    160.23207    1.0759261     41630971 0.00063990883    472.81681     2860.446    -2.275268    42.910307    432.18177            0 
  566500       566500    160.08335    1.1313595     41599558 0.00064039205     475.4419    2860.8551    -2.418836    44.351504    433.50923            0 
  567000       567000    159.80907    1.2713551     41582566 0.00064065373    478.59926    2859.9254   -3.1710254    43.029945    438.74034            0 
  567500       567500    159.88143    1.1447916     41572116 0.00064081477    478.31978    2860.7241   -1.3663384    45.175597    434.51052            0 
  568000       568000    159.41185    1.1434326     41570644 0.00064083746    485.58326    2860.9903   -1.3805204    44.593952    442.36983            0 
  568500       568500    160.78252    1.0594474     41566874 0.00064089558    465.96352    2861.7951   -1.1214172    43.321875    423.76306            0 
  569000       569000    159.84619    1.1273469     41547825 0.00064118943    478.51313    2860.3923    -1.959726     45.10474    435.36811            0 
  569500       569500    160.48241    1.1962269     41549723 0.00064116013    469.47734    2860.8369   -1.8943152    45.022627    426.34903            0 
  570000       570000    159.94861    1.3591024     41550270 0.00064115168    477.77264     2861.178   -1.1976813    44.432762    434.53756            0 
  570500       570500    160.05723    1.2149753     41593095 0.00064049155     476.4623    2861.4861   -1.6155981     44.93834    433.13956            0 
  571000       571000    160.30414   0.93640863     41624764 0.00064000426    472.48568    2861.1888   -2.5953223    46.372498     428.7085            0 
  571500       571500    160.00496   0.94686801     41661519 0.00063943962    476.84488    2861.0898   -2.2209157    48.142547    430.92325            0 
  572000       572000    160.25644    0.9544544     41686584 0.00063905514    471.90824    2859.9006   -2.1629397    46.162787    427.90839            0 
  572500       572500     159.9641    1.1167739     41700866 0.00063883627    477.42676    2861.0629   -2.6558011    44.437167     435.6454            0 
  573000       573000    159.85565     1.153813     41687904 0.00063903491    479.73628    2861.7565   -1.6319692     45.92417    435.44408            0 
  573500       573500    159.96702    1.2001565     41662617 0.00063942277    478.68641    2862.3661   -1.8619617    44.472598    436.07577            0 
  574000       574000    159.88309    1.2711983     41650524 0.00063960842    479.42278    2861.8518   -2.4854192    46.027938    435.88026            0 
  574500       574500    159.54142    1.0911607     41661328 0.00063944256    484.80315    2862.1409   -1.8726174    47.013612    439.66216            0 
  575000       575000    159.96763   0.93087718     41663286 0.00063941249    477.34445    2861.0332   -2.4037604    46.197594    433.55061            0 
  575500       575500    159.97449    1.0098373     41675810 0.00063922036    478.26915    2862.0601   -1.9429817    45.270797    434.94133            0 
  576000       576000    160.47074    1.0590366     41685664 0.00063906924    470.91891    2862.1045   -2.1080613     44.33102    428.69596            0 
  576500       576500    159.60367    0.9742767     41703123 0.0006388017    483.75103    2862.0164    -1.932559    46.107248    439.57634            0 
  577000       577000    160.26792   0.99484953     41730822 0.0006383777     473.6376     2861.801   -2.2212753    44.721352    431.13752            0 
  577500       577500    159.63962     0.949588     41786312 0.00063752997    484.13982    2862.9409   -1.2872435    45.313132    440.11394            0 
  578000       578000    160.01653   0.80442816     41843702 0.00063665557    477.33712    2861.7546    -2.180834    47.076262    432.44169            0 
  578500       578500    159.83855    0.8068764     41882647 0.00063606357    479.62981    2861.3951   -2.3768717    45.464072    436.54261            0 
  579000       579000    159.94588    1.0089786     41899725 0.00063580431    479.39667    2862.7613   -1.6993087    45.049129    436.04685            0 
  579500       579500    160.05521    1.0637663     41897865 0.00063583254    477.63588    2862.6297   -2.3691903     45.25946    434.74561            0 
  580000       580000    160.12618    0.8064392     41902460 0.00063576282    476.31871      2862.37   -2.2358611    44.533633    434.02094            0 
  580500       580500    159.72184   0.90607789     41884868 0.00063602984    482.92063    2862.9469   -1.9250516    43.020159    441.82552            0 
  581000       581000    159.54728   0.61574854     41827624 0.00063690028    484.80701    2862.2321   -2.8454582    46.746227    440.90624            0 
  581500       581500    160.03493   0.60522347     41782772 0.00063758397    477.13017    2861.8217   -2.3637884    45.871669    433.62229            0 
  582000       582000    160.18204   0.64065676     41733062 0.00063834343    475.79419    2862.6778   -1.8200421    44.516558    433.09768            0 
  582500       582500    160.06024   0.86028784     41697958 0.00063888083    477.05318     2862.122   -2.5711734    46.672846     432.9515            0 
  583000       583000    159.58865    0.9336395     41711652 0.00063867108    483.24592    2861.2874   -1.7948424    46.149247    438.89152            0 
  583500       583500    160.22978   0.79569099     41748206 0.00063811187    474.87214    2862.4673   -1.8304827    46.696799    430.00582            0 
  584000       584000    159.74039    0.6447727     41767526 0.0006378167    481.33351    2861.6362   -2.5204592    47.855344    435.99862            0 
  584500       584500    160.02996   0.73863891     41801877 0.00063729257    478.24246      2862.86    -1.505011    47.089982    432.65749            0 
  585000       585000    159.66861   0.82579624     41803309 0.00063727075    483.14835    2862.3814   -2.1969539    46.469104     438.8762            0 
  585500       585500    159.74363    1.1411675     41799199 0.00063733341    482.17127    2862.5222   -2.1489811    44.881197    439.43906            0 
  586000       586000    160.35951    1.0663144     41778666 0.00063764664    471.73482     2861.263   -3.0748789    44.536953    430.27274            0 
  586500       586500    160.31721    1.0040924     41774129 0.00063771589    473.05732    2861.9552    -2.377204    46.532709    428.90182            0 
  587000       587000    159.74948    0.8975561     41793267 0.00063742387    481.92196      2862.36   -1.8761167    45.454686    438.34339            0 
  587500       587500     160.0215   0.78109979     41832734 0.00063682249    478.63393    2863.1255   -1.4074091    47.833814    432.20753            0 
  588000       588000    159.86878   0.61022198     41887152 0.00063599516    480.89212    2863.1079   -1.6354409    45.608924    436.91863            0 
  588500       588500    160.06012   0.67037711     41926978 0.00063539104    476.38916    2861.4561   -2.6101165    45.260877     433.7384            0 
  589000       589000      160.077   0.93169816     41958051 0.00063492048    477.56938    2862.8879   -2.2656511    45.912817    433.92222            0 
  589500       589500    159.78039    1.0651982     41991351 0.00063441698    481.21965    2862.1183    -1.166179    45.510446    436.87539            0 
  590000       590000    159.72359   0.99139917     42017600 0.00063402065    481.39252    2861.4448   -4.0734559    45.738342    439.72763            0 
  590500       590500    160.15559   0.95806723     42010391 0.00063412944    474.52421    2861.0137   -3.0721394    46.056187    431.54017            0 
  591000       591000    160.28111   0.90890483     41963249 0.00063484184    473.71235    2862.0723   -3.2904258    47.906742    429.09603            0 
  591500       591500    159.92563    1.0204268     41903560 0.00063574613    477.94214     2861.005   -3.3480554    45.659478    435.63072            0 
  592000       592000    159.64731    0.9881887     41871971 0.00063622574     483.7228    2862.6384   -2.3571768    45.709861    440.37012            0 
  592500       592500     159.7804    1.1786373     41865141 0.00063632954    480.74078    2861.6396   -2.2998575    46.089491    436.95115            0 
  593000       593000    160.11223    1.2777898     41891754 0.0006359253    475.36352     2861.207   -3.3579254    43.985596    434.73585            0 
  593500       593500    160.34673    1.1419409     41921400 0.00063547558    472.91749    2862.2553   -2.8181303     43.75003    431.98559            0 
  594000       594000    160.05086    1.2677602     41971768 0.00063471298    475.87183    2860.8008   -3.4519224    46.725987    432.59777            0 
  594500       594500    160.25409    1.3817306     42035152 0.00063375591    473.10059     2861.058   -3.6896487     46.82975    429.96049            0 
  595000       595000    159.92196    1.5576065     42092915 0.00063288622    478.70752    2861.7157   -3.2311389    46.137055    435.80161            0 
  595500       595500    160.26897    1.3875846     42139377 0.00063218842    474.40602    2862.5851   -2.2157518    44.203651    432.41812            0 
  596000       596000    160.12069     1.428531     42155453 0.00063194733    476.48875    2862.4582   -1.9629657    42.361137    436.09058            0 
  596500       596500    159.67508    1.3136039     42139660 0.00063218417    482.83139    2862.1609   -2.4253638    44.509998    440.74675            0 
  597000       597000    160.08246   0.86772504     42099438 0.00063278816    476.38695    2861.7868    -2.890895      47.2854    431.99245            0 
  597500       597500    160.05066    1.0668134     42100338 0.00063277463    478.05938    2862.9854   -2.1584733    44.195197    436.02265            0 
  598000       598000    160.13605   0.86491026     42103094 0.00063273321    476.59365    2862.7921   -1.6680286    46.795341    431.46634            0 
  598500       598500    160.41438    1.1152225     42095697 0.00063284439    472.43289    2862.7787    -1.941872    42.878009    431.49675            0 
  599000       599000    159.98903    1.1969991     42083234 0.00063303182    479.12307    2863.1307   -2.0715444    46.148813     435.0458            0 
  599500       599500    160.04749    1.4240548     42082341 0.00063304524    477.82829     2862.707   -2.2465922    45.639194    434.43569            0 
  600000       600000    159.93376    1.3384674     42062402 0.00063334533    479.54434    2862.7284   -2.6150456    46.115608    436.04378            0 
  600500       600500    160.04545    1.1421585     42037476 0.00063372087     477.2773    2862.1257   -2.7154429    44.761585    435.23116            0 
  601000       601000    160.19965   0.99248906     42035543 0.00063375002    475.52879     2862.675    -1.612432    45.948413    431.19281            0 
  601500       601500    159.95416   0.99747532     41999851 0.00063428859    480.00959    2863.4976   -1.5399342    44.721066    436.82846            0 
  602000       602000    160.24852    1.0297235     41952918 0.00063499817    474.09249    2861.9668   -3.2767243    45.777409     431.5918            0 
  602500       602500    159.76203    1.0962716     41952099 0.00063501056    481.28907    2861.9141   -1.4764955    47.557831    435.20774            0 
  603000       603000    159.96402    1.0876729     42014272 0.00063407087    477.83882    2861.4739   -3.2827891    48.296601    432.82501            0 
  603500       603500    160.22718   0.83809281     42049260 0.00063354327    474.53219    2862.0885   -3.4751851    45.364536    432.64284            0 
  604000       604000    159.92465   0.70132431     42059232 0.00063339306    479.97407    2863.0224   -2.2228046     45.91376    436.28311            0 
  604500       604500    160.18852   0.66868979     42040439 0.00063367621     475.4566    2862.4369   -2.8740971    49.158789    429.17191            0 
  605000       605000    159.44901   0.62255302     42040594 0.00063367387    487.12987    2863.0907   -2.3949244    47.486254    442.03854            0 
  605500       605500    160.12466   0.70734809     42055878 0.00063344358    476.58444    2862.6132   -2.5441554    46.741712    432.38688            0 
  606000       606000      159.924     0.841797     42084325 0.0006330154    480.58401    2863.6227   -1.6820259    46.799017    435.46702            0 
  606500       606500     159.8093   0.95448088     42098285 0.00063280549    482.48643    2863.8159   -1.5157119    45.149836    438.85231            0 
  607000       607000    160.41662   0.97525466     42106696 0.00063267909    472.71834    2863.0975   -2.5306981    47.927291    427.32175            0 
  607500       607500    159.53536    1.1353139     42127138 0.00063237208    485.24441    2862.4919   -2.7616797    45.394671    442.61142            0 
  608000       608000    160.58954    1.0453201     42136401 0.00063223306    469.59834    2862.5542   -2.5711262    45.811746    426.35773            0 
  608500       608500    159.61762    1.2460444     42138002 0.00063220904    483.62897    2862.1023    -3.249416    46.491414    440.38697            0 
  609000       609000    159.89285    1.1250775     42161234 0.00063186068    480.99423    2863.5687   -2.2077597    47.520273    435.68172            0 
  609500       609500    160.19067    1.1059167     42170429 0.00063172291    476.85712    2863.8695   -2.1346142    46.304225    432.68751            0 
  610000       610000    159.92072   0.98644521     42172099 0.00063169789    480.32495    2863.3146   -2.7032768    47.573954    435.45427            0 
  610500       610500    160.12811   0.98123664     42207136 0.0006311735    477.82943    2863.9095   -1.7559672    47.246878    432.33852            0 
  611000       611000    159.72162   0.91174165     42229615 0.00063083753    484.00802     2864.031   -2.7711371    48.233707    438.54545            0 
  611500       611500     159.9836    1.0666709     42223812 0.00063092423    479.19869    2863.1254   -3.3529414    48.091388    434.46025            0 
  612000       612000    160.02265      1.02672     42228855 0.00063084888    478.48088    2862.9895   -2.9061359    47.535738    433.85128            0 
  612500       612500    159.89682   0.80751763     42218262 0.00063100717    480.67821    2863.3118   -3.3648928    48.816606     435.2265            0 
  613000       613000    159.89854    0.9121618     42215407 0.00063104984    480.88462    2863.5439   -2.8784432    49.111729    434.65134            0 
  613500       613500    160.09851   0.96963863     42208398 0.00063115463    477.13459    2862.7737   -4.3086691    46.600309    434.84295            0 
  614000       614000    159.72964   0.96659732     42213436 0.0006310793    483.02572    2863.1681   -3.2415695    47.579774    438.68752            0 
  614500       614500    159.86894   0.95710346     42195010 0.0006313549    481.84694    2864.0652   -2.2724768     47.20291    436.91651            0 
  615000       615000    160.07463   0.84333459     42183225 0.00063153128    478.80142    2864.0846   -2.0205602    48.131598    432.69039            0 
  615500       615500    159.38789    1.0006187     42177813 0.00063161231    488.73856    2863.7885   -3.2535678    47.555503    444.43663            0 
  616000       616000     160.5236   0.87488438     42178498 0.00063160205    470.30633    2862.2796   -4.1422009    46.281741    428.16679            0 
  616500       616500    159.42196    0.6020788     42207555 0.00063116724    489.99684    2865.5545   -1.2375363    48.501969     442.7324            0 
  617000       617000    159.77495   0.53725829     42211854 0.00063110296    483.22616    2864.0438   -2.0497321     46.33737    438.93852            0 
  617500       617500    159.69059   0.17551805     42230198 0.00063082882    484.84652     2864.407    -2.546956    50.303443    437.09003            0 
  618000       618000    159.43593   0.36691977     42246550 0.00063058464     488.5832     2864.349   -2.2623754    49.673932    441.17165            0 
  618500       618500     159.4634    0.4824845     42258558 0.00063040546    487.68041    2863.8556   -2.9641742    48.659664    441.98492            0 
  619000       619000    159.40965   0.71092561     42298745 0.00062980653     487.5343    2862.9085   -4.5767861    48.508998    443.60209            0 
  619500       619500    160.62005   0.68671777     42393651 0.00062839659    470.09112    2863.5016    -2.661664    46.261943    426.49084            0 
  620000       620000    160.04655   0.64597151     42439751  0.000627714    479.29521      2864.16   -2.7710644    45.685339    436.38094            0 
  620500       620500    159.76976     0.756973     42454323 0.00062749855    483.85991    2864.6002   -2.5033669    49.045619    437.31766            0 
  621000       621000    159.89305   0.39451916     42422716 0.00062796606    481.42145    2863.9989    -3.273828    47.774376     436.9209            0 
  621500       621500    159.88717   0.50515671     42395805 0.00062836466    480.80289    2863.2927   -3.0246671    48.926644    434.90091            0 
  622000       622000    159.52486   0.67320869     42407830 0.00062818648    487.10157    2864.1926   -2.4891845    49.347769    440.24299            0 
  622500       622500    159.97721   0.65672892     42453524 0.00062751035    480.83342    2864.6649   -2.1079036     49.41966    433.52166            0 
  623000       623000     160.5725   0.66700339     42497838 0.00062685603    471.56148    2864.2635   -1.9470796     48.21987    425.28869            0 
  623500       623500    159.28237   0.59939794     42539290 0.0006262452    491.00871    2864.4864   -2.9139215    48.155591    445.76704            0 
  624000       624000    159.75642   0.64909904     42564622 0.00062587249    483.59552     2864.137      -1.5806    49.499672    435.67645            0 
  624500       624500    160.32534   0.44411259     42597780 0.00062538531    474.40166    2863.4207   -3.4345499    48.923904     428.9123            0 
  625000       625000    159.66209   0.75616368     42588341 0.00062552392    484.84517     2863.981   -3.5882835    47.268804    441.16465            0 
  625500       625500    159.82627   0.72934639     42553393 0.00062603764     483.3631    2864.9454   -2.5558464    47.329207    438.58974            0 
  626000       626000    159.90542   0.82869724     42524550 0.00062646226    483.09466    2865.8565   -1.7412232    49.834153    435.00173            0 
  626500       626500    159.92236   0.95735847     42517734 0.00062656269    481.85989    2864.8741   -2.0845025    45.456279    438.48812            0 
  627000       627000    160.01825   0.94821164     42525844 0.0006264432    480.28185    2864.7249   -1.9132871     47.41459    434.78054            0 
  627500       627500    160.11537   0.80041229     42542990 0.00062619073    479.88058    2865.7709   -1.6465214    48.985606     432.5415            0 
  628000       628000     159.8525   0.79065172     42536353 0.00062628843    483.01415    2864.9873   -1.9463957    46.985408    437.97513            0 
  628500       628500    160.43889   0.72752383     42529934 0.00062638295    475.33957    2866.0506   -1.6048308    48.339598     428.6048            0 
  629000       629000     159.6564   0.90735682     42549592 0.00062609357    486.32362    2865.3747   -2.0647435    46.916248    441.47211            0 
  629500       629500    160.74466   0.92413551     42604922 0.00062528048    468.96906    2864.2364   -2.2506135      46.6923    424.52737            0 
  630000       630000    159.82137     1.210291     42654960 0.00062454697    483.81312    2865.3225   -2.1944138    45.856934     440.1506            0 
  630500       630500     160.3447    1.0482395     42670620 0.00062431777    476.45296    2865.7605     -1.71524    46.889991     431.2782            0 
  631000       631000    159.16943   0.91467493     42651345 0.0006245999    494.21546    2866.0102   -2.1130249    51.771394     444.5571            0 
  631500       631500    160.16806    0.8537911     42631581 0.00062488946     478.9411    2865.6164    -2.562821    49.205602    432.29832            0 
  632000       632000    159.90659   0.80981206     42633039 0.00062486809    483.98109    2866.7602  -0.87871339    49.185785    435.67402            0 
  632500       632500    159.90356   0.99327747     42610732 0.00062519522    483.76913    2866.5031   -1.6530427    48.468117    436.95406            0 
  633000       633000    159.73746    1.0120999     42594899 0.00062542762    484.85783    2865.1167   -2.2483705    46.455101     440.6511            0 
  633500       633500    159.80606    1.1079248     42578392 0.00062567008    483.97415    2865.2553   -2.7076861    49.190299    437.49154            0 
  634000       634000    160.15257   0.88990082     42582598 0.00062560827    478.71365    2865.1582   -3.0375893    50.162442     431.5888            0 
  634500       634500    159.92622   0.92194178     42606690 0.00062525453    480.99546    2864.0671   -3.4869463    46.479303    438.00311            0 
  635000       635000    160.70994   0.86044388     42635701 0.00062482908    469.07811    2863.8281    -3.435285    47.524507    424.98888            0 
  635500       635500    159.47434   0.84576782     42661666 0.00062444879    488.63788    2864.9761   -4.4004804    48.962724    444.07564            0 
  636000       636000     160.1843   0.91868064     42682180 0.00062414868    478.53249    2865.4499   -3.0250223    47.440935    434.11658            0 
  636500       636500    160.01574   0.94364868     42681064 0.00062416499    481.21056    2865.6161    -3.286062    47.261592    437.23503            0 
  637000       637000    160.33255    1.1821957     42663822 0.00062441724    475.80157     2864.928   -3.5486909    48.066489    431.28377            0 
  637500       637500    160.51348    1.2087745     42616444 0.00062511143    473.77016    2865.5926   -3.4705166    47.330098    429.91058            0 
  638000       638000     160.1263    1.3603724     42569168 0.00062580566    479.63204    2865.6852   -2.8351096    47.393541    435.07361            0 
  638500       638500    160.21867    1.3747901     42525301 0.0006264512    478.39037      2865.82   -1.4719635    46.770157    433.09218            0 
  639000       639000    159.80758    1.1506042     42522862 0.00062648713    485.17843    2866.4822   -1.9076197    47.491718    439.59434            0 
  639500       639500    160.34646    1.0038722     42532812 0.00062634057    477.48271    2866.8164   -1.8929828     47.08173    432.29396            0 
  640000       640000    160.17138   0.86510797     42562557 0.00062590285    479.54769    2866.2725    -2.214812    48.451344    433.31116            0 
  640500       640500    159.64043   0.76048584     42595437 0.00062541971    487.83199    2866.6451   -1.9842538    47.495273    442.32097            0 
  641000       641000    160.00162   0.92222274     42607814 0.00062523803    482.18899    2866.3842   -1.4391908    46.380597    437.24758            0 
  641500       641500    159.74007   0.86461881     42595668 0.00062541631    486.01424    2866.3122   -2.7036185    51.977701    436.74016            0 
  642000       642000    159.91377   0.80558142     42582374 0.00062561157    483.05598    2865.9422   -2.5109146     49.49325    436.07365            0 
  642500       642500    160.49382   0.59378842     42556098 0.00062599786    474.47945     2866.009   -2.6265048    48.783967    428.32198            0 
  643000       643000    159.66493   0.58894562     42533832 0.00062632555     487.0498     2866.228   -2.2279744    48.438042    440.83974            0 
  643500       643500    160.27143   0.45598484     42525377 0.00062645009    477.32962    2865.5454   -2.2387628    49.588905    429.97948            0 
  644000       644000    159.79342   0.55110509     42543765 0.00062617932    484.88809     2865.981   -2.5672556    49.236781    438.21856            0 
  644500       644500    159.93887    0.7564782     42599071 0.00062536635    481.85578     2865.116   -4.5250422    50.226917     436.1539            0 
  645000       645000    159.72276   0.95062718     42696737 0.00062393588    486.29506    2866.3351   -2.3719239    50.445823    438.22117            0 
  645500       645500    159.71943    1.1809472     42748880 0.00062317483    486.26081    2866.2512   -1.4963902    48.598576    439.15863            0 
  646000       646000    160.19319    1.0385346     42788200 0.00062260217    478.64435    2865.6942   -2.9249429    49.059916    432.50938            0 
  646500       646500    160.10828   0.95792305     42786530 0.00062262646    481.04891    2866.8335   -2.2512881    49.729594     433.5706            0 
  647000       647000    159.67709   0.83727802     42780649 0.00062271205    487.84595    2867.2054   -2.5321566    46.346766    444.03134            0 
  647500       647500    160.53144   0.76470908     42764258 0.00062295073    475.99443    2868.0845   -1.9028144    47.633811    430.26343            0 
  648000       648000    159.80433   0.88094156     42733254 0.0006234027    486.28145    2867.5368   -2.6325635    47.663416     441.2506            0 
  648500       648500    159.96482   0.96771185     42721071 0.00062358047    482.61646    2866.2634   -2.6127952    48.125132    437.10413            0 
  649000       649000    159.77042     1.151959     42752272 0.00062312539    487.13949    2867.8896   -1.6920859    48.236342    440.59523            0 
  649500       649500     160.1077    1.1124796     42758729 0.00062303128    482.32003     2868.096   -1.8701926    48.806112    435.38411            0 
  650000       650000    159.58755    1.1650301     42776292 0.00062277549    488.57365    2866.5988   -3.4955118    45.825016    446.24414            0 
  650500       650500    159.80631   0.92268656     42803202 0.00062238395    484.91463    2866.1995   -3.6637311    48.751706    439.82665            0 
  651000       651000    159.74031   0.71161426     42808554 0.00062230614    486.43315    2866.7346   -3.8550625    50.115292    440.17292            0 
  651500       651500    159.90477   0.73361623     42798683 0.00062244967    483.52683     2866.279    -3.664483    50.216075    436.97524            0 
  652000       652000    159.77951   0.68984817     42780835 0.00062270935    487.92026    2868.8058   -1.3757934    46.451762    442.84429            0 
  652500       652500    160.11743   0.61312795     42762150 0.00062298145     482.1621    2868.0831   -2.5740018    49.890138    434.84596            0 
  653000       653000    159.88547   0.54806873     42794277 0.00062251376      485.125    2867.5896   -2.4287673    49.446787    438.10698            0 
  653500       653500    160.35038   0.57220331     42830196 0.00062199168    479.20174    2868.5938    -1.279529    50.083847    430.39742            0 
  654000       654000    160.08959   0.83177266     42844133 0.00062178935    483.66745    2869.1735  -0.99067951    47.988897    436.66923            0 
  654500       654500    159.99689    1.0160631     42847756 0.00062173679    483.79684    2867.9216   -2.6355901     46.44697    439.98546            0 
  655000       655000    160.18621    1.1232642     42878731 0.00062128765    481.54817     2868.494   -1.7932773    49.252271    434.08918            0 
  655500       655500    159.80387    1.2669771     42908419 0.00062085779    486.82469    2868.0732   -2.4279061    48.929532    440.32306            0 
  656000       656000    159.90525    1.1115607     42913153 0.00062078929    483.16342    2865.9226   -4.6600629    47.394456    440.42902            0 
  656500       656500    159.77118    1.0255898     42898683 0.00062099869    487.25428    2868.0157   -2.3815994    49.875116    439.76076            0 
  657000       657000    160.12674   0.96833638     42861198 0.00062154179    481.89471    2867.9544   -2.5063439     48.47748    435.92358            0 
  657500       657500    160.37776   0.99726609     42794927 0.0006225043    478.28619    2868.0863   -2.3398253    50.567949    430.05807            0 
  658000       658000    159.67823   0.98926951     42715918 0.0006236557    488.61015    2867.9866   -2.3952415     50.64195    440.36345            0 
  658500       658500    159.83033   0.93112653     42672905 0.00062428433     486.6108    2868.2536   -1.9108802    47.066092    441.45559            0 
  659000       659000    160.16791   0.98522169     42657312 0.00062451253    481.92783     2868.601   -1.7476217    47.645539    436.02991            0 
  659500       659500    159.88873   0.98221404     42662560 0.0006244357    485.83627    2868.3494   -2.1360208    48.936912    439.03538            0 
  660000       660000    159.78558    1.0602798     42679474 0.00062418824    487.47119    2868.4472   -1.6931484    49.192761    439.97157            0 
  660500       660500    160.30223    1.2357447     42737615 0.00062333909     479.3488    2868.0235   -2.3422494    47.499274    434.19178            0 
  661000       661000    160.01058    1.3102016     42798909 0.00062244638    483.65896    2867.9877   -2.4917997     46.24238    439.90838            0 
  661500       661500    159.59567    1.0675187     42831527 0.00062197235    490.38584    2868.5321   -2.3300225    52.276022    440.43984            0 
  662000       662000    160.26325    1.0131043     42846981 0.00062174802     479.8923    2867.9861   -2.7608182    49.411016     433.2421            0 
  662500       662500    159.69435    1.0726424     42862228 0.00062152686    489.35563    2868.9723   -1.4916346    48.414756    442.43251            0 
  663000       663000    160.29897   0.89959082     42849158 0.00062171643    480.47431    2869.1004    -1.550395    47.818026    434.20668            0 
  663500       663500     160.0892    0.9417414     42845480 0.00062176981    482.99472    2868.4951   -2.2411162    50.230594    435.00524            0 
  664000       664000    160.14793   0.76766162     42850327 0.00062169948    482.46182    2868.8372   -1.5720717    47.998144    436.03575            0 
  664500       664500    159.85392   0.89098073     42849474 0.00062171185     487.1902    2869.1845   -1.6317798    50.135426    438.68655            0 
  665000       665000    160.25989   0.83743564     42858413 0.00062158218    480.65587    2868.6996   -2.3540529    50.794788    432.21513            0 
  665500       665500    159.91394   0.97654509     42913845 0.00062077928    485.83956    2868.7283   -2.3292018    49.744496    438.42427            0 
  666000       666000    159.76809    1.1249713     42964461 0.00062004795     487.3913    2868.1067   -2.7026721    49.168637    440.92533            0 
  666500       666500    159.97781    1.0870049     42981736 0.00061979875    485.00382    2868.8443   -1.7506215    46.810124    439.94432            0 
  667000       667000    159.96301    1.0535953     42968031 0.00061999643    484.61136    2868.2313   -2.9442368    48.139565    439.41603            0 
  667500       667500    159.96485   0.91287576     42961729 0.00062008737     485.2037     2868.851   -2.0236096    48.861226    438.36608            0 
  668000       668000    159.74891    1.0132303     42959409 0.00062012086    488.47943    2868.9091   -2.5098081     47.47163    443.51761            0 
  668500       668500    160.34805    1.0331946     42964376 0.00062004918    478.40131    2867.7588   -3.7550015    49.387624    432.76869            0 
  669000       669000    160.17579   0.98523801     43024088 0.00061918863    480.32315    2867.1137   -3.6118318    47.332185     436.6028            0 
  669500       669500    159.94157    1.1349875     43086914 0.00061828577     483.5554    2866.8559   -3.4739444    48.866535    438.16281            0 
  670000       670000    160.32744   0.95860258     43132676 0.00061762979    479.45602    2868.5064   -3.0284106    50.121501    432.36293            0 
  670500       670500    160.48918   0.87255542     43133562 0.00061761711    476.83512    2868.2956   -3.6132847    47.632392    432.81601            0 
  671000       671000    159.62683   0.76831445     43130119 0.00061766642    489.38055     2867.991   -3.0689624    51.228652    441.22086            0 
  671500       671500    160.39482    1.1313629     43125374 0.00061773438    479.53918    2869.5935   -1.9610854    48.581601    432.91866            0 
  672000       672000    160.08939    1.2710111     43122429 0.00061777656    483.54198     2869.045   -3.1910222     50.16991    436.56309            0 
  672500       672500    159.94541    1.3369976     43129262 0.00061767868    484.56192    2867.9196   -3.8238408    48.981244    439.40451            0 
  673000       673000    159.92832    1.2310487     43128371 0.00061769145    484.25002     2867.353   -3.6383792    50.094699     437.7937            0 
  673500       673500    160.29222    1.1180823     43135328 0.00061759183     480.5573    2869.0829   -2.3090644    48.603003    434.26336            0 
  674000       674000     159.7164    1.0925221     43153948 0.00061732535    489.27124    2869.2165   -2.4040382     49.94865    441.72663            0 
  674500       674500    160.42096   0.76634756     43175802 0.00061701288    479.07225    2869.5161   -2.2946087    50.133267    431.23359            0 
  675000       675000     159.8369   0.68533139     43190523 0.00061680258    488.20402    2869.9447   -2.2320849    50.372395    440.06371            0 
  675500       675500    159.82413   0.77619442     43196233 0.00061672105    488.97723    2870.5277   -1.9515536    52.824343    438.10444            0 
  676000       676000    159.98755   0.72577718     43204918 0.00061659707    485.97863    2869.9642   -1.6122713     50.49337    437.09753            0 
  676500       676500    159.52038   0.98161979     43233421 0.00061619057    492.73228    2869.7566   -1.9912616    48.236415    446.48713            0 
  677000       677000    160.45555     0.881757     43259169 0.00061582381    478.29011    2869.2494   -2.0363491    51.169357     429.1571            0 
  677500       677500     159.4472   0.89527481     43311853 0.00061507473    493.62055    2869.5544   -2.4040729     52.01699    444.00764            0 
  678000       678000    160.22125    0.8195769     43355126 0.00061446082     481.5883    2869.0563   -2.8082299    51.344952    433.05158            0 
  678500       678500    160.11998    1.0403547     43388897 0.00061398255    483.46797    2869.4269   -2.7414074    49.253112    436.95627            0 
  679000       679000    159.69209    1.0895243     43382239 0.00061407679    489.42451    2869.0074   -2.5352751    50.690681     441.2691            0 
  679500       679500    159.39058    1.0590791     43330106 0.00061481562     495.0265    2870.1166   -2.9379847    51.557747    446.40673            0 
  680000       680000    160.43263   0.80711654     43286494 0.00061543505    478.97094    2869.5887   -2.4469779    49.167056    432.25087            0 
  680500       680500    160.12993   0.97179215     43251583 0.00061593182    484.36804    2870.4752   -1.4928316    51.031891    434.82899            0 
  681000       681000    159.69627    1.0854407     43223434 0.00061633293    491.03048    2870.6757   -1.5761003    48.606845    443.99974            0 
  681500       681500    159.97162    1.0157095     43215018 0.00061645296    485.83052    2869.5787     -3.02566    50.585197    438.27098            0 
  682000       682000    159.26499   0.98420287     43254944 0.00061588396    496.07316    2869.2918   -2.7578267     51.56817    447.26281            0 
  682500       682500    159.78834    1.0850166     43314391 0.00061503867    488.93713    2869.9543   -2.1552495    48.972862    442.11951            0 
  683000       683000    159.74468   0.74751782     43369255 0.00061426063    488.79141    2869.1579    -3.284851     50.47546     441.6008            0 
  683500       683500    160.00101   0.53796462     43443119 0.00061321624    484.85713    2869.0433   -4.2966225    51.009749      438.144            0 
  684000       684000    159.84021   0.50145846     43561799 0.00061154559    487.78965    2869.5797    -2.183676     50.07194    439.90138            0 
  684500       684500    160.16681   0.64126072     43608590 0.00061088941    483.34318         2870   -2.2894721    49.446198    436.18646            0 
  685000       685000    160.14325   0.72408508     43647982 0.00061033809    484.02277    2870.3285   -2.4906245    51.103897     435.4095            0 
  685500       685500    159.78488   0.78118152     43659952 0.00061017076    489.42044     2870.386   -2.6192497    52.601668    439.43802            0 
  686000       686000    159.54089   0.95035547     43671402 0.00061001077    492.93911     2870.269   -2.6177157     49.65826    445.89856            0 
  686500       686500    159.82601    1.0966448     43696373 0.00060966217    488.55469    2870.1332   -1.7166892    48.505435    441.76595            0 
  687000       687000    159.94628   0.98201083     43714197 0.00060941359    487.42328     2870.794   -2.3941014    50.758408    439.05898            0 
  687500       687500    160.22594   0.96900868     43736322 0.0006091053    482.76687    2870.3047   -2.0458472    50.455661    434.35705            0 
  688000       688000    160.18393    1.0242649     43745085 0.00060898329    484.44642    2871.3583   -1.6772139    48.483618    437.64002            0 
  688500       688500    160.10407   0.98111416     43734692 0.00060912801    485.50411     2871.226   -1.9510565    50.748121    436.70704            0 
  689000       689000    160.16162   0.93609543     43719124 0.00060934492    484.90457    2871.4839   -1.8945044    49.580918    437.21815            0 
  689500       689500     159.7691    1.0733933     43722945 0.00060929166    490.64284    2871.3732     -2.18724    50.931216    441.89887            0 
  690000       690000    160.12487   0.94160498     43719479 0.00060933997    484.37513    2870.4069   -3.1208823     51.42416    436.07186            0 
  690500       690500    160.19417   0.89007672     43754197 0.00060885647    482.65903    2869.7235   -4.6421283    49.281755     438.0194            0 
  691000       691000    160.36407   0.95076173     43820347 0.00060793735    481.22702    2870.8232   -3.1398628     49.99656    434.37032            0 
  691500       691500    159.41324    1.0502374     43837238 0.00060770311    495.78356    2871.2112   -2.4239239    50.618019    447.58946            0 
  692000       692000    160.39866    1.1218939     43813403 0.00060803371    480.23907    2870.3506   -3.8819403    48.700529    435.42048            0 
  692500       692500    160.22484    1.0552468     43784464 0.00060843558    483.48716    2871.0086   -3.0253226    50.603927    435.90856            0 
  693000       693000    160.31057    1.2208213     43763145 0.00060873197    481.97724    2870.7762   -1.4815691    48.980959    434.47785            0 
  693500       693500    159.64923     1.214123     43792055 0.00060833011     492.4369    2871.3812   -2.3068583    50.120107    444.62365            0 
  694000       694000    160.29408    1.2960538     43831643 0.00060778069    483.48818    2872.0414   -1.3162221    48.710869    436.09353            0 
  694500       694500    160.20986     1.135678     43826429 0.00060785299    484.74823    2872.0465   -1.8939716      48.7116     437.9306            0 
  695000       695000    160.00331    1.2445736     43828245 0.0006078278    487.48492    2871.7053   -1.8948536    50.260431    439.11934            0 
  695500       695500    159.97072    1.2498405     43836126 0.00060771853    488.52783    2872.2626   -1.2786887    48.696691    441.10983            0 
  696000       696000    159.38907    1.0147265     43842492 0.00060763029    497.42969    2872.4974   -1.5360658    51.434619    447.53114            0 
  696500       696500    160.19487   0.90182966     43854465 0.0006074644    484.71474    2871.7897   -2.3249794    52.991988    434.04773            0 
  697000       697000    159.91994   0.83995894     43856017 0.0006074429    488.89754    2871.8757   -2.0368938    49.697118    441.23732            0 
  697500       697500     160.0979   0.71630917     43872290 0.00060721758    486.74958    2872.3796   -1.4410224    50.080287    438.11032            0 
  698000       698000    159.37004   0.79297323     43896491 0.00060688281    497.40821    2872.1923   -1.7165232    51.142948    447.98179            0 
  698500       698500    159.81893   0.72621844     43922462 0.00060652397    491.43572    2872.9087   -1.7942153    51.077782    442.15215            0 
  699000       699000    160.39296   0.76699087     43942766 0.00060624372    482.03021    2872.0569   -2.0962228    49.553173    434.57326            0 
  699500       699500    159.51809   0.94750855     43952439 0.0006061103    495.13732    2872.1275   -1.8464975    50.527716     446.4561            0 
  700000       700000    160.51498    1.0726523     43946468 0.00060619265    479.21322    2871.0581   -2.4907522    49.312932    432.39104            0 
  700500       700500    159.82385     1.245978     43938775 0.00060629879    488.48664    2870.0329   -4.0370307    48.878645    443.64502            0 
  701000       701000    160.32197   0.79318345     43953813 0.00060609135    480.83329    2869.8021   -3.4392746     51.81721    432.45536            0 
  701500       701500    159.76085   0.88438769     43975700 0.00060578969    489.96823    2870.5757   -2.0546424    51.189601    440.83327            0 
  702000       702000    160.16046   0.77100157     43981548 0.00060570914    485.32647    2871.8886   -2.3147784    49.833404    437.80784            0 
  702500       702500     160.0964   0.73000566     43950012 0.00060614377    485.61504    2871.2227    -2.305987    49.630741    438.29029            0 
  703000       703000    160.32383   0.93177965     43915988 0.00060661337    482.05148     2871.048   -2.5220266    47.831351    436.74216            0 
  703500       703500    160.38235    1.0956047     43874424 0.00060718805    481.80794    2871.6765   -2.1887063    48.963366    435.03328            0 
  704000       704000      160.056    1.2942517     43846804 0.00060757053    487.26976    2872.2754   -1.2762124    50.615685    437.93029            0 
  704500       704500    160.05852    1.1504489     43825203 0.00060786999    487.06296     2872.106   -1.8583761    48.683426    440.23791            0 
  705000       705000    160.18141    0.9620318     43827586 0.00060783694     483.7899    2870.6642   -2.2602935    48.655056    437.39513            0 
  705500       705500    160.32295   0.85452547     43851861 0.00060750046    482.48536    2871.4688   -2.2834603    49.945116     434.8237            0 
  706000       706000    159.99039    0.8227424     43872086 0.0006072204    486.96475    2870.9927   -3.3814838    52.041037     438.3052            0 
  706500       706500    159.91638   0.90810249     43885855 0.00060702989    488.07209    2870.9972    -2.379989    51.389345    439.06273            0 
  707000       707000    160.16553    0.8041928     43880536 0.00060710348    485.05418    2871.6918   -1.2912816    49.347862     436.9976            0 
  707500       707500    159.43038   0.73739254     43860814 0.00060737647    495.66055    2871.3436   -1.1560708    51.846048    444.97058            0 
  708000       708000    160.18944   0.65599101     43839218 0.00060767566    484.94899    2871.9429   -1.7457495    49.527524    437.16722            0 
  708500       708500     160.0001   0.60027539     43786816 0.0006084029    488.36129    2872.5339   -1.9520058    51.015288    439.29801            0 
  709000       709000      159.781    0.7475042     43736822 0.00060909834    491.54362    2872.4515  -0.81494374    49.472656     442.8859            0 
  709500       709500    160.22474   0.89412148     43703781 0.00060955883     483.7947    2871.3146   -2.3374661    50.420264     435.7119            0 
  710000       710000    159.51522    1.0337166     43688030 0.00060977861    492.95471    2869.9022   -4.7527828    51.672793     446.0347            0 
  710500       710500    160.58638   0.96173292     43667936 0.0006100592     478.2138    2871.1226   -2.9510602    52.789765     428.3751            0 
  711000       711000    159.91605    1.1825129     43646531 0.00061035838    488.22965    2871.1498   -2.6212333    49.856317    440.99456            0 
  711500       711500    160.00959    1.1667462     43630765 0.00061057893    486.56134    2870.8754   -1.8714722    50.807351    437.62546            0 
  712000       712000    160.55046    1.1373925     43660609 0.00061016158    478.06017    2870.4338   -3.5876087    51.560322    430.08745            0 
  712500       712500    160.16898    1.2397685     43681746 0.00060986632    484.24078    2870.9299   -2.9425344    51.922869    435.26045            0 
  713000       713000    160.29443    1.3939952     43694295 0.00060969117    483.33997    2871.8984   -2.0717103    50.241569    435.17011            0 
  713500       713500    160.10314     1.390554     43717804 0.00060936332     486.5799     2872.288   -2.0211781    50.152672    438.44841            0 
  714000       714000     160.1273    1.3538523     43765236 0.00060870289    485.04723    2871.1153    -2.939418    48.851034    439.13561            0 
  714500       714500    160.32353    1.2580998     43815186 0.00060800896    482.80617    2871.7982   -2.4121341    48.850684    436.36762            0 
  715000       715000    159.82657    1.2301907     43862475 0.00060735346     489.1743    2870.7612   -3.2349146    52.602462    439.80675            0 
  715500       715500    159.96529    1.0648083     43873193 0.00060720509    487.40093    2871.0548   -2.3957441    50.180537    439.61614            0 
  716000       716000    160.35129    1.0639591     43855438 0.00060745091    482.67822     2872.084   -2.2969924    49.094741    435.88047            0 
  716500       716500    160.21424   0.85154307     43806541 0.00060812896    484.02804    2871.3915   -2.7793516    48.816986    437.99041            0 
  717000       717000    160.12609   0.89864483     43773648 0.00060858592    486.20297    2872.2529   -1.4821437    49.599495    438.08562            0 
  717500       717500    160.01627    1.0118821     43758441 0.00060879742    488.36939     2872.783   -1.5362307    52.217382    437.68824            0 
  718000       718000    160.50919    1.1973758     43775457 0.00060856077    480.41866    2872.1772   -1.8879707    49.138234     433.1684            0 
  718500       718500    159.74864    1.2283034     43826373 0.00060785377     490.7744    2871.1999    -2.972489    51.908304    441.83858            0 
  719000       719000    159.80078    1.3737363     43913177 0.00060665221    490.44704    2871.6495   -2.8710922    51.847288    441.47084            0 
  719500       719500     159.9615    1.0770528     43987712 0.00060562427    488.47564    2872.0731   -2.3998054    49.525784    441.34966            0 
  720000       720000     160.0531    1.0771057     44007579 0.00060535086    487.24468     2872.207   -2.3780916    52.129979    437.49279            0 
  720500       720500    160.18032   0.98034996     43953203 0.00060609977    485.12267    2871.9807   -3.1379794    48.418598    439.84205            0 
  721000       721000    160.11076   0.95190955     43907192 0.00060673491    486.05113    2871.8727   -2.6559913    49.618416    439.08871            0 
  721500       721500      160.176    1.0880357     43897125 0.00060687405     485.4399    2872.2336   -2.1510711    51.981899    435.60907            0 
  722000       722000    160.34849    1.1696563     43895591 0.00060689525    483.39533    2872.7593   -1.7514825    51.601938    433.54487            0 
  722500       722500    159.40799    1.1922194     43903864 0.00060678089    496.86576    2872.2153   -3.2120879    50.983187    449.09466            0 
  723000       723000    160.47621   0.97694296     43950105 0.00060614248    480.28435    2871.5515   -2.9481146    48.732789    434.49967            0 
  723500       723500     159.9198   0.99285761     44006567 0.00060536478    489.58731    2872.5634   -2.0705641    53.186087    438.47179            0 
  724000       724000    159.59992    1.0473811     44020982 0.00060516655    494.61168    2872.8212   -1.2302141    53.046786    442.79511            0 
  724500       724500    159.66697    1.1770407     44023649 0.00060512989    494.06536    2873.2739   -1.1273622    49.155802    446.03692            0 
  725000       725000     160.5773    1.1010548     44002177 0.00060542518     479.4706    2872.2442   -2.5493721    51.516364    430.50361            0 
  725500       725500    160.23999    1.2292371     43925917 0.00060647626    483.60218    2871.3493   -3.7404225    52.423562    434.91904            0 
  726000       726000    160.08618    1.2652281     43855508 0.00060744994    485.83652    2871.2918   -3.6058999     50.66709    438.77533            0 
  726500       726500    160.52438    1.1886484     43833643 0.00060775296    479.53814    2871.5231   -2.9231206    50.826909    431.63435            0 
  727000       727000    159.94003    1.1622805     43860625 0.00060737908    489.38984    2872.6673   -1.5249968    49.805182    441.10965            0 
  727500       727500    160.27248    0.9417461     43891571 0.00060695083    484.62959    2872.8609   -2.2910366     51.94095    434.97968            0 
  728000       728000    159.92074    1.0477714     43940296 0.0006062778    488.72475    2871.7148   -3.5065694    52.707271    439.52405            0 
  728500       728500    160.05667   0.98768311     43994356 0.0006055328    487.34163    2872.3571   -2.1421203    50.889893    438.59386            0 
  729000       729000    159.99795   0.88632447     44005275 0.00060538256    487.74215    2871.8828    -1.031449    52.440335    436.33327            0 
  729500       729500    160.11488   0.76447999     44036953 0.00060494707    486.78845    2872.6714   -2.2749472    52.549494    436.51391            0 
  730000       730000    159.74025   0.84888773     44073654 0.00060444333    493.69131    2873.9919   -1.6545438    52.514464    442.83139            0 
  730500       730500    160.03388   0.91038414     44092823 0.00060418055    487.96745    2872.6434   -2.6091526     52.00058    438.57602            0 
  731000       731000    159.68045   0.73417192     44146819 0.00060344158    494.24621    2873.6556   -1.8479491    53.675501    442.41866            0 
  731500       731500    160.09877   0.73738947     44148365 0.00060342044    487.13416    2872.7771   -2.9934802    55.945008    434.18263            0 
  732000       732000    160.00544   0.76446124     44129231 0.00060368207    489.43524    2873.6875   -2.0604635    54.165529    437.33018            0 
  732500       732500    160.20633   0.90410344     44094308 0.0006041602    486.11277    2873.3585   -2.4658919    52.363736    436.21492            0 
  733000       733000    160.24455   0.96667773     44052503 0.00060473353    485.21902    2873.0341   -3.0790472    51.274296    437.02377            0 
  733500       733500    159.88355   0.94805617     44050949 0.00060475487    491.13267    2873.5685   -2.0301714    52.258633    440.90421            0 
  734000       734000    160.72382   0.79180446     44033641 0.00060499258    479.03908    2873.9959   -1.6976236    53.262696      427.474            0 
  734500       734500    159.75469   0.95699137     44011955 0.00060529067     492.4725    2872.9882   -2.7876096    50.913966    444.34614            0 
  735000       735000    160.08243    1.1096823     44005554 0.00060537872    486.97957     2872.379   -2.5578897    49.889228    439.64823            0 
  735500       735500    160.23364    1.0303619     44001143 0.00060543941    484.87473    2872.5273   -3.0419428     50.50147     437.4152            0 
  736000       736000    159.93904   0.95671466     44009114 0.00060532974    489.55807    2872.8208   -1.8042289      53.7988     437.5635            0 
  736500       736500    160.10078   0.91539074     44062007 0.0006046031    488.78105    2874.4538   -1.4457749    53.079212    437.14761            0 
  737000       737000    159.95409    1.0253938     44113390 0.00060389886     489.7415    2873.2286   -2.2471967    50.004609    441.98409            0 
  737500       737500    159.57431    1.1385622     44165992 0.00060317961    495.33619    2873.1641   -2.4133122    50.871911    446.87759            0 
  738000       738000     160.2425   0.85608687     44189572 0.00060285775     485.9239    2873.7085    -2.642407    52.277682    436.28862            0 
  738500       738500    159.97097    1.0308502     44212528 0.00060254473    489.43457    2873.1731   -2.6299308    50.548919    441.51558            0 
  739000       739000    160.18667    1.0603183     44229639 0.00060231163    487.12211    2874.0748   -2.0553025    50.632317     438.5451            0 
  739500       739500     159.9425    1.1613193     44227520 0.00060234048    490.79895    2874.1132   -2.2375806    51.994369    441.04216            0 
  740000       740000    160.51871    1.1446161     44223966 0.00060238889     481.4067    2873.3072   -2.0106565    53.219033    430.19833            0 
  740500       740500    159.65345    1.4196533     44205933 0.00060263463     495.9728      2874.98  -0.76020275    51.974989    444.75801            0 
  741000       741000    160.27363    1.5299275     44210692 0.00060256975    484.07673    2872.3251   -3.6509663    50.778122    436.94957            0 
  741500       741500    160.08858      1.23953     44237907 0.00060219905    487.46956    2872.9606    -3.046366    51.446233    439.06969            0 
  742000       742000    159.56347     1.254051     44247136 0.00060207345     495.7115    2873.3778   -2.4368825    51.377257    446.77112            0 
  742500       742500      160.473   0.94156698     44222330 0.00060241117    482.39821    2873.6175   -2.2469774    50.770157    433.87503            0 
  743000       743000    160.05114    0.8840212     44211899 0.0006025533    488.83787    2873.7711   -2.8298414    49.589727    442.07798            0 
  743500       743500    159.60858   0.91175339     44189618 0.00060285712    495.94033    2874.2789   -1.8727062    53.267454    444.54558            0 
  744000       744000    160.32632   0.79395836     44163157 0.00060321833    485.26359    2874.2972   -2.1701883    53.898113    433.53567            0 
  744500       744500    160.12636   0.85183754     44122523 0.00060377386    487.77785    2873.8319   -2.7661874    50.470221    440.07382            0 
  745000       745000    160.00835   0.97235942     44115012 0.00060387666    490.04229    2874.3378   -1.8651775    51.395933    440.51153            0 
  745500       745500    159.66662     1.041084     44119238 0.00060381881    495.94759     2875.151   -1.8860821    53.751806    444.08187            0 
  746000       746000    160.36272   0.87944349     44119778 0.00060381143    484.71351    2874.2896    -2.302701    52.716609     434.2996            0 
  746500       746500    159.66838   0.91663938     44104472 0.00060402097    495.22782    2874.4575   -2.5327534    51.121399    446.63917            0 
  747000       747000    159.94586   0.71851411     44090185 0.00060421669    491.26467     2874.629    -2.014287    51.687999    441.59096            0 
  747500       747500    160.28533   0.80920569     44090944 0.00060420629    486.00849    2874.4313   -2.5555857    53.211632    435.35244            0 
  748000       748000    160.23635   0.72855175     44092428 0.00060418595    485.57472    2873.2677   -3.5810462    52.873097    436.28267            0 
  748500       748500    159.40972   0.87928116     44123783 0.00060375662     498.7627    2874.1379   -2.6641406     51.88858    449.53826            0 
  749000       749000    160.31424   0.63808596     44150176 0.00060339569     485.3965    2874.2501   -3.0548102    56.944704    431.50661            0 
  749500       749500    159.49106   0.67240989     44171897 0.00060309898    499.39258    2875.9799     -1.59827     54.37372    446.61713            0 
  750000       750000    159.80036   0.58582993     44154116 0.00060334184    493.05556    2874.2518    -2.505437    50.791386    444.76961            0 
  750500       750500    160.07851    0.6264744     44114827 0.00060387919    489.97278    2875.3138   -2.3925721    53.620648     438.7447            0 
  751000       751000    159.71286   0.53468771     44126346 0.00060372155    495.21305    2875.1055   -2.8350675    52.975214     445.0729            0 
  751500       751500    160.19221   0.51215533     44167327 0.00060316137     488.3607    2875.3959   -1.6715944    53.978398    436.05389            0 
  752000       752000     159.6129   0.59868296     44175040 0.00060305607    496.94701    2875.3499   -1.0817808     54.08242    443.94637            0 
  752500       752500    160.29469   0.69677076     44181184 0.0006029722    486.22532    2874.7876   -2.8428069    54.317021    434.75111            0 
  753000       753000    159.38765   0.76813015     44214909 0.00060251228    501.04172    2876.0881    -2.690838    52.729776    451.00278            0 
  753500       753500    160.22846   0.92346927     44246651 0.00060208006    488.86388    2876.4393    -2.292275    52.450582    438.70557            0 
  754000       754000    160.31713   0.65464334     44239887 0.0006021721    487.78255    2876.6792   -1.6162296    53.814261    435.58452            0 
  754500       754500    159.53728   0.95205146     44201836 0.00060269049    497.97541    2875.2515   -2.9981593    53.591437    447.38213            0 
  755000       755000    160.45765    1.0172084     44173027 0.00060308355    484.71058    2875.7011   -2.2722642     51.24338    435.73946            0 
  755500       755500    159.83957    1.0859724     44112221 0.00060391486    492.90161    2874.6821   -3.5674334    51.958347     444.5107            0 
  756000       756000    160.64911     1.252117     44071606 0.00060447141    482.06164    2875.9051   -1.9708448    52.659738    431.37275            0 
  756500       756500    159.12459     1.480918     44067367 0.00060452956     505.1662    2876.2927   -2.0836858    54.433952    452.81593            0 
  757000       757000    160.57475      1.25728     44071665 0.0006044706    483.08674    2875.8223   -1.9954776    51.688972    433.39324            0 
  757500       757500    160.20852    1.2041679     44093326 0.00060417365    489.09066     2876.369   -1.3306478    52.016441    438.40486            0 
  758000       758000    159.94412    1.2338362     44093921 0.00060416551    491.30464    2874.6431   -3.0714422    50.851353    443.52473            0 
  758500       758500    160.11535     1.191309     44066983 0.00060453483    490.17944    2876.0693   -1.6185673    52.416126    439.38188            0 
  759000       759000    159.83555    1.1940568     44026476 0.00060509103     494.9853    2876.7059    -1.356417    50.722263    445.61946            0 
  759500       759500    159.85465    1.0729298     43999980 0.00060545541    493.53933    2875.5446   -1.6815489    53.126054    442.09482            0 
  760000       760000    160.14283   0.95626381     44001537 0.00060543399    487.24913    2873.5486   -3.8502275    52.386478    438.71288            0 
  760500       760500    160.49042   0.87131839     44015018 0.00060524855    483.63747    2875.1163   -1.9033015    51.837024    433.70375            0 
  761000       761000    159.67994   0.86201363     44013791 0.00060526542    495.62071    2875.0226   -2.6296395    52.736171    445.51418            0 
  761500       761500    159.98338   0.86637168     44027276 0.00060508004    491.05731    2874.9808    -2.788211    52.601214    441.24431            0 
  762000       762000    160.19993    1.0313678     44048229 0.00060479221    487.33765    2874.4879   -2.6651304    51.338733    438.66405            0 
  762500       762500     159.4925   0.97949283     44072811 0.00060445489     498.4134    2875.0223   -2.9715047    53.382791    448.00211            0 
  763000       763000    160.07739   0.83148095     44104644 0.00060401862    489.33584    2874.6602   -2.7425773    54.247421      437.831            0 
  763500       763500    160.17904   0.75326069     44118341 0.00060383108    488.26028    2875.0993   -1.9664153    52.109945    438.11675            0 
  764000       764000    159.42267    1.0015195     44102963 0.00060404164    499.49896    2875.0672   -2.8269154     54.34344    447.98244            0 
  764500       764500    160.16785   0.95015572     44124789 0.00060374285    487.82186    2874.4942   -3.0613412    52.764706     438.1185            0 
  765000       765000    159.89634    1.0988904     44124666 0.00060374454    491.70278    2874.3292   -3.2684236    52.136944    442.83426            0 
  765500       765500    160.52992    1.0751629     44115911 0.00060386435    481.97387    2874.0414   -2.2971294    51.709651    432.56134            0 
  766000       766000    159.93395    1.2144772     44124482 0.00060374705    492.03666    2875.2236   -2.3968791     52.20613    442.22741            0 
  766500       766500    160.08468    1.1238026     44122092 0.00060377976    490.55043    2875.9834   -1.8917583    53.347021    439.09517            0 
  767000       767000    159.88933    1.0538285     44100024 0.0006040819    493.14009    2875.6621   -2.2773034    55.184614    440.23278            0 
  767500       767500    159.57613   0.94183197     44075537 0.00060441751    498.29031    2876.1452   -1.8581345    55.793581    444.35487            0 
  768000       768000    160.01452   0.78200714     44045940 0.00060482365    491.20722    2875.5946   -1.8218466    54.154675     438.8744            0 
  768500       768500    159.83877   0.57867617     44040431 0.0006048993    493.60811    2875.3767   -2.3098704    51.109209    444.80877            0 
  769000       769000    159.94071   0.79944096     44059578 0.00060463643    491.70067    2874.9883   -1.8301926    51.725031    441.80583            0 
  769500       769500    159.92473   0.62990127     44068732 0.00060451083    492.41133    2875.4608   -1.7854853    55.522723    438.67409            0 
  770000       770000    159.56766    0.9992828     44069657 0.00060449815    497.52977    2875.2585   -3.1544605    52.888416    447.79582            0 
  770500       770500    160.04678   0.90805482     44056282 0.00060468167    490.70653    2875.5747   -2.6986609    51.477272    441.92792            0 
  771000       771000    159.73257   0.83449337     44044421 0.0006048445     495.7613    2875.9474   -2.1431954    53.913963    443.99053            0 
  771500       771500     159.9184     0.695442     44004025 0.00060539976    493.13898    2876.0941   -1.8603489    54.081139    440.91819            0 
  772000       772000    160.08584   0.72631688     43980282 0.00060572659    489.14157    2874.5918   -2.7587947    53.021669     438.8787            0 
  772500       772500    159.96384   0.89766174     43991344 0.00060557426    492.78381     2876.416    -1.999272    51.697716    443.08536            0 
  773000       773000     160.6416   0.88862154     43991792 0.00060556809    481.88996    2875.6215   -2.5488358    51.895469    432.54332            0 
  773500       773500    160.13963    1.0779524     43994611 0.0006055293    489.72993    2875.9817   -2.1171894    51.370281    440.47684            0 
  774000       774000    160.08091    1.1830138     43982326 0.00060569843    490.11603    2875.4928   -3.0008948    51.035318     442.0816            0 
  774500       774500    160.86447    1.1372891     43987293 0.00060563003    479.56093    2876.6136   -1.1877899    53.498755    427.24996            0 
  775000       775000    159.96799    1.4803985     43977015 0.00060577159    492.88522    2876.5794   -2.0824254    51.645725    443.32192            0 
  775500       775500    160.71456    1.3327106     43956961 0.00060604794    481.63661    2876.4554   -2.0869244    51.682217    432.04132            0 
  776000       776000    159.69524    1.2940219     43957467 0.00060604097    497.44587    2877.0757   -1.0015527    52.551033    445.89639            0 
  776500       776500    160.63151    1.1575775     43971970 0.00060584108    483.15496    2876.7363   -1.5773768    52.417171    432.31516            0 
  777000       777000    159.94729    1.2158697     43970628 0.00060585957    493.20211    2876.5878   -2.0703392    50.920088    444.35236            0 
  777500       777500     159.7783    1.1876692     43958558 0.00060602593    496.30805    2877.1756    -1.610222    52.435567    445.48271            0 
  778000       778000    160.36811   0.85897503     43933040 0.00060637793    486.03657     2875.693   -2.3612651    53.841807    434.55602            0 
  778500       778500    160.14937   0.80878878     43936271 0.00060633334    489.55212     2875.949    -2.170911    52.327377    439.39565            0 
  779000       779000    159.89376   0.83084629     43949047 0.00060615707    493.39149    2875.9795   -2.4820116    52.248215    443.62528            0 
  779500       779500    159.58435   0.88278258     43970252 0.00060586476    498.77388    2876.7513   -0.8965347    53.857613     445.8128            0 
  780000       780000    160.03582    1.1210989     43984823 0.00060566405    491.25888    2875.9637    -1.261533    53.571306    438.94911            0 
  780500       780500    159.81131    1.2728972     44029308 0.00060505212    495.51939    2876.8788   -1.4112121    51.531169    445.39943            0 
  781000       781000    160.19756    1.2823541     44064827 0.0006045644    488.92804     2876.043   -2.2960467      52.6096    438.61448            0 
  781500       781500    159.98887    1.1824743     44091261 0.00060420195    492.22857    2876.2339   -2.2675706    52.706523    441.78962            0 
  782000       782000    159.96979    1.2141118     44090739 0.0006042091    493.09034    2876.8113   -1.8225968    54.113497    440.79944            0 
  782500       782500    160.14814   0.73185372     44087748 0.0006042501    490.06702    2876.4455   -1.7607458    53.715372     438.1124            0 
  783000       783000    159.86398   0.63056569     44059259 0.0006046408    495.00224    2877.1465   -1.5033307    53.623585    442.88199            0 
  783500       783500    160.40384   0.67131652     44018347 0.00060520277    486.47711    2876.6659   -2.4625884    55.867971    433.07172            0 
  784000       784000    159.70065    0.8083004     44007936 0.00060534595    496.62823    2876.3387   -2.2314087    54.197469    444.66217            0 
  784500       784500    160.31494   0.78055248     44001633 0.00060543266    487.97004    2876.8342   -1.8148769    54.760044    435.02487            0 
  785000       785000    159.85695   0.93050996     44007233 0.00060535562    494.56334    2876.6029    -2.250333    54.657858    442.15582            0 
  785500       785500    159.96321    0.9612597     44023973 0.00060512544    492.28018    2875.9031   -2.7405794    52.082044    442.93871            0 
  786000       786000    160.53635   0.86045613     44038913 0.00060492015    483.53596    2875.6992   -2.9701322    52.333232    434.17286            0 
  786500       786500    159.83917    1.0663098     44013974 0.0006052629    495.14009    2876.9147   -2.6870234    53.961947    443.86516            0 
  787000       787000     160.4463   0.93939048     43964189 0.0006059483    485.73217    2876.5536   -2.6319493    51.037363    437.32676            0 
  787500       787500    159.71864    1.2818232     43945352 0.00060620804    496.63864    2876.6172   -2.2673749    50.428776    448.47723            0 
  788000       788000    160.10238    1.0822557     43925820 0.0006064776    491.80525    2877.5019    -1.543622    54.775317    438.57355            0 
  788500       788500     159.7399    1.2772323     43916652 0.0006066042    496.49914    2876.7944    -2.339955    55.765412    443.07369            0 
  789000       789000    159.93703    1.1234644     43954881 0.00060607662    493.91611    2877.1489   -2.0435148    53.948588    442.01104            0 
  789500       789500    159.80288    1.1290847     43975106 0.00060579788    495.09667    2876.3305   -3.2813119     51.84955    446.52843            0 
  790000       790000    160.11994   0.71151083     44010217 0.00060531458    490.88062    2876.8389   -2.1136057    54.731659    438.26256            0 
  790500       790500    159.91953   0.82764545     44033682 0.00060499201     495.2702    2878.2422   -1.2345665    54.610287    441.89448            0 
  791000       791000    160.06067    0.6743139     44045069 0.0006048356     493.4946    2878.5698  -0.93143747    53.155298    441.27074            0 
  791500       791500    159.84345   0.89413236     44049830 0.00060477023    496.40318    2878.2416   -1.4012508    53.766319    444.03811            0 
  792000       792000    160.41721   0.95372466     44057630 0.00060466317    487.95893     2878.347  -0.92052266    54.150312    434.72914            0 
  792500       792500    159.62449    1.0872548     44064526 0.00060456853    499.94201    2878.5176   -1.0039635    53.389295    447.55668            0 
  793000       793000    160.10591    1.3111909     44055490 0.00060469253    491.38008    2877.1294   -2.7244453    53.642941    440.46159            0 
  793500       793500    160.25573    1.4766052     44065538 0.00060455465    489.18654    2877.1683   -2.1177927    53.513442    437.79089            0 
  794000       794000    160.09689    1.5514668     44068583 0.00060451288    490.16644    2875.7813   -3.4715834    56.212516    437.42551            0 
  794500       794500     159.9697    1.4026693     44076597 0.00060440297    493.25452    2876.9741   -2.4796413    54.188119    441.54604            0 
  795000       795000    160.29427    1.3782124     44038737 0.00060492256    488.95544    2877.5115   -2.3248394    53.169816    438.11047            0 
  795500       795500     159.8666    1.4591254     43996172 0.00060550782    493.49769     2875.681    -3.623048    53.590068    443.53067            0 
  796000       796000    160.12048    1.2945652     43983360 0.0006056842    491.41937    2877.3858   -2.4105185    53.426111    440.40378            0 
  796500       796500    160.31433     1.173065     43970807 0.00060585711    488.39627    2877.2513   -2.3446911    54.537462     436.2035            0 
  797000       797000    160.11596    1.1151377     43960457 0.00060599976     489.8144    2875.7134   -4.3185836    54.161083     439.9719            0 
  797500       797500    159.99695    1.1930403     43992418 0.00060555948    491.46859    2875.5942   -2.5604078    54.785843    439.24316            0 
  798000       798000    159.90017    1.1631314     44017528 0.00060521404    493.49887    2876.1823   -2.7432134    51.404251    444.83783            0 
  798500       798500    159.91417    1.1230814     44041758 0.00060488107    495.29807    2878.1902   -1.2785549     53.04371    443.53291            0 
  799000       799000    160.30654   0.97803631     44066794 0.00060453742    489.55846    2878.2973   -1.5010486    55.717407    435.34211            0 
  799500       799500    159.97575   0.96442951     44097133 0.00060412149    494.80096    2878.6108   -1.0360699    51.648548    444.18848            0 
  800000       800000    160.16907    1.0570512     44114080 0.00060388941     490.3146     2877.005   -3.1159327    53.697653    439.73288            0 
  800500       800500    159.95859    1.1747456     44150450 0.00060339195    493.77264    2877.3266   -1.9883818    54.899306    440.86172            0 
  801000       801000    160.01266    1.2255394     44154681 0.00060333413    493.19892    2877.5586   -2.3354287    53.350563    442.18379            0 
  801500       801500      159.937    1.1041499     44124825 0.00060374236    494.23486    2877.4672   -2.4475194    56.309297    440.37308            0 
  802000       802000    160.20924   0.86679953     44104957 0.00060401432    490.34422    2877.6332   -2.3372827     55.20416    437.47734            0 
  802500       802500     160.3589    0.7134203     44096908 0.00060412458    488.55717    2878.0762   -2.3178961    55.663792    435.21127            0 
  803000       803000    159.37826   0.67432563     44096953 0.00060412396    504.31168    2879.2183  -0.98943858    55.781093    449.52002            0 
  803500       803500    160.66646   0.62061077     44074752 0.00060442827    483.68535    2877.7874   -2.0682116    51.544844    434.20871            0 
  804000       804000    159.99405   0.65805179     44056751 0.00060467523    494.14076    2878.2233   -2.7161369    53.466609    443.39029            0 
  804500       804500    159.51384   0.96371001     44073607 0.00060444396    500.77246    2877.6992   -2.7574654     55.55587    447.97406            0 
  805000       805000    159.94493    1.2411329     44090924 0.00060420657    493.97525    2877.3258    -2.509714    53.010994    443.47397            0 
  805500       805500    160.11359    1.3266915     44083582 0.0006043072    491.48164    2877.3454   -2.7970539    54.902156    439.37654            0 
  806000       806000    160.26835    1.4796679     44051452 0.00060474796    488.47678    2876.6465   -3.5202412     54.62219    437.37483            0 
  806500       806500    159.85669    1.3499676     44027128 0.00060508208    495.48646    2877.5221   -2.5814881    56.117433    441.95051            0 
  807000       807000    160.28343    1.3336443     44027469 0.00060507739    489.07068    2877.4651   -3.5024263    55.469989    437.10312            0 
  807500       807500    160.14942    1.2267513     44073082 0.00060445118    491.36937     2877.767   -2.6862449    54.289407     439.7662            0 
  808000       808000    159.88606    1.0775513     44092752 0.00060418152    494.61208    2877.0853   -3.4721768    55.209375    442.87488            0 
  808500       808500    160.20495   0.86784643     44118713 0.00060382599    490.70239    2877.9275    -2.478176    54.426989    438.75357            0 
  809000       809000    160.06152   0.81380674     44104004 0.00060402738    493.81586    2878.9037   -1.7103271    54.270045    441.25614            0 
  809500       809500    160.25395   0.81765461     44068033 0.00060452042    489.97583    2877.9311   -2.8146191    56.146319    436.64413            0 
  810000       810000    160.23776   0.84901469     44070675 0.00060448418    489.70703     2877.421   -2.8414981    54.392175    438.15635            0 
  810500       810500    159.71618     1.000185     44066836 0.00060453684    497.96077    2877.9026   -2.6920216    53.477889     447.1749            0 
  811000       811000    160.42223    1.0360366     44039735 0.00060490885      487.764    2878.2268   -2.2765364    53.604945    436.43559            0 
  811500       811500    159.67501    1.2486224     44002263  0.000605424     497.4466     2876.775   -3.9511221    53.909301    447.48842            0 
  812000       812000    160.10155    1.2206935     43970356 0.00060586333    492.16906    2877.8534   -2.5617938    54.414281    440.31657            0 
  812500       812500    159.84309   0.98217429     43917080 0.0006065983    495.06803    2876.9011   -3.1510875    52.326967    445.89215            0 
  813000       813000    160.05851   0.93200785     43877965 0.00060713904    493.02361    2878.0666   -2.5191413      59.3415    436.20126            0 
  813500       813500    159.58089   0.92379564     43871470 0.00060722893    499.22603     2877.152   -3.8093463     56.01057    447.02481            0 
  814000       814000     160.1244   0.94602698     43891609 0.00060695031    491.13785    2877.1627    -2.619016    53.642167     440.1147            0 
  814500       814500    160.16177    1.0674335     43888393 0.00060699479     491.5769    2878.1585   -2.8316312    55.215904    439.19263            0 
  815000       815000     159.7074    1.0437231     43863989 0.00060733249    498.42918    2878.2403    -2.447696    53.408753    447.46812            0 
  815500       815500      159.988    1.0287706     43812296 0.00060804907    493.19152    2877.1838    -2.626542     50.55201    445.26605            0 
  816000       816000    160.33254   0.78581835     43781755 0.00060847324    488.17116    2877.2974   -2.8029332    53.888295     437.0858            0 
  816500       816500    159.83242   0.95748096     43808192 0.00060810603    496.32692    2878.0009   -2.4651854    54.085096    444.70701            0 
  817000       817000    159.71279   0.98219144     43810426 0.00060807502    498.14809    2878.0395   -2.5450149    54.510326    446.18278            0 
  817500       817500    160.29148    1.0109035     43825739 0.00060786256    490.09794    2878.6123    -1.809094    55.110482    436.79655            0 
  818000       818000    160.33849   0.97084223     43828671 0.00060782189    488.29101     2877.506   -3.0581233    54.088371    437.26076            0 
  818500       818500    159.71862    1.0548307     43840353 0.00060765993    498.58338    2878.5616    -1.849254    54.067154    446.36548            0 
  819000       819000    160.15087    1.1241987     43841036 0.00060765046    491.81604    2878.2353    -2.763834    53.531222    441.04865            0 
  819500       819500    160.21669    1.3233449     43846792 0.00060757069    491.30573    2878.7057   -2.0122926    52.978876    440.33914            0 
  820000       820000    160.27295    1.3423082     43859533 0.00060739419    489.74597    2877.9844   -2.6754616    54.389321    438.03211            0 
  820500       820500    160.01923    1.4580286     43854261 0.00060746722    493.70224    2878.1599   -2.6461321    52.348039    444.00033            0 
  821000       821000    160.36653    1.4170594     43847025 0.00060756747     488.7232     2878.356   -2.5567039    55.591224    435.68868            0 
  821500       821500    159.87046    1.4105676     43859477 0.00060739498    496.70317     2878.944    -1.902078    54.503583    444.10167            0 
  822000       822000    160.45439    1.2217769     43855759 0.00060744646     487.7205    2878.6626   -2.6471646     54.87399    435.49367            0 
  822500       822500    160.22019    1.0145545     43882224 0.00060708012    488.43018    2875.8823   -3.6665948     55.39073    436.70605            0 
  823000       823000    160.20905   0.93771895     43960478 0.00060599946    490.04261    2877.3288   -3.3068001    53.722714     439.6267            0 
  823500       823500     159.9143   0.97560143     44032607 0.00060500678    494.89469    2877.7888   -3.4069215    54.765153    443.53645            0 
  824000       824000    159.90488   0.77156455     44114787 0.00060387974    494.36468    2877.1185   -3.3103466    54.121467    443.55356            0 
  824500       824500      159.828   0.82675101     44179943 0.00060298914    497.11726    2878.7254   -2.4850194    57.158028    442.44426            0 
  825000       825000    160.20828    0.6869017     44187491 0.00060288614    492.73186    2880.0066   -1.5931941     60.17455    434.15051            0 
  825500       825500    159.74653   0.81733373     44168822 0.00060314097    498.48874    2878.8828   -2.3501338    55.586998    445.25188            0 
  826000       826000     159.8776   0.75070524     44165011 0.00060319302    496.54719    2878.8944   -2.7067217    56.196216    443.05769            0 
  826500       826500    159.82712   0.84373915     44161836 0.00060323638    498.31417    2879.9092   -1.5084432    55.360878    444.46174            0 
  827000       827000    160.28144    0.8753346     44167560 0.0006031582    490.66956    2879.0345   -2.1987267    56.321254    436.54703            0 
  827500       827500    159.66358    1.1234097     44184207 0.00060293095    500.24203    2879.4001   -2.2230596    55.627834    446.83726            0 
  828000       828000    159.95595    1.1124055     44159134 0.00060327329    494.24267    2877.7574   -3.9035914    53.354894    444.79137            0 
  828500       828500    160.19671   0.98067696     44120337 0.00060380377    491.11673     2878.219   -3.6500852     55.06867    439.69814            0 
  829000       829000    160.13182    1.0050195     44098199 0.00060410689      492.483    2878.6184    -2.137496    55.750677    438.86982            0 
  829500       829500    159.77563    1.0113953     44095626 0.00060414213     498.9785    2879.8063    -1.765711    55.262461    445.48175            0 
  830000       830000    160.10005    1.1181186     44105145 0.00060401175    493.62182    2879.2838   -2.4639528    58.322861    437.76291            0 
  830500       830500    159.95254    1.1428587     44111719 0.00060392173     494.5005    2877.9644   -3.6961014    53.519323    444.67728            0 
  831000       831000    159.97844    1.1846777     44118295 0.00060383172    494.84435    2878.6942   -3.0926411    55.447252    442.48974            0 
  831500       831500      159.955    1.0138257     44139811 0.00060353739    495.41209    2878.9127   -2.6031046    56.674832    441.34036            0 
  832000       832000    160.10818   0.94514692     44150389 0.00060339278    491.86179    2877.6449   -3.1340111    55.396576    439.59923            0 
  832500       832500    159.87618    0.9838309     44141541 0.00060351372    497.15083    2879.4768    -2.365038     57.66281    441.85306            0 
  833000       833000     160.0201    1.1279831     44120685 0.00060379901     495.9023    2880.3729   -1.7262125    56.380494    441.24802            0 
  833500       833500    159.70583    1.1018322     44085538 0.00060428039    499.38308    2879.1707   -2.8258316    55.871917    446.33699            0 
  834000       834000    160.02956   0.82835284     44066037 0.00060454781    495.16829    2879.7799   -3.0293602    59.056076    439.14157            0 
  834500       834500    159.41025   0.87708062     44095388 0.0006041454    503.91566    2879.2988   -2.6124278    56.983531    449.54455            0 
  835000       835000    159.98759   0.65721764     44084663 0.00060429238    496.12687     2880.113    -2.470992    57.076983    441.52088            0 
  835500       835500    159.66543   0.57115924     44050911 0.00060475539    500.32861    2879.5142   -2.6391746    56.615659    446.35212            0 
  836000       836000    159.81356   0.58448113     44022769 0.00060514199    498.32794    2879.7209   -2.0537085    56.138716    444.24293            0 
  836500       836500    159.26808   0.56745707     44006920 0.00060535992    506.33063    2879.5953   -2.6178346    56.492234    452.45623            0 
  837000       837000    160.37762   0.39291517     43987804  0.000605623    490.06234    2879.8604   -2.2363236    58.041389    434.25727            0 
  837500       837500    159.86712    0.5728535     43971591 0.00060584631    497.38189    2879.5729   -2.1175335    57.674163    441.82526            0 
  838000       838000    159.59305   0.58220981     43951828 0.00060611873    500.51083     2878.618   -2.6608015    56.251272    446.92036            0 
  838500       838500    159.51266   0.95383465     43922022 0.00060653004    501.30766    2878.2169   -1.7795508    57.893322    445.19389            0 
  839000       839000    159.91996   0.96040477     43932418 0.00060638651    496.04593    2879.0244   -3.0354473     56.36123    442.72014            0 
  839500       839500     159.7915    1.1617976     43943215 0.00060623752    497.86256    2878.9268     -2.79875    56.550116    444.11119            0 
  840000       840000    159.85689    1.0913904     43942756 0.00060624386    496.53031    2878.5689   -2.0689617    56.828183    441.77109            0 
  840500       840500    160.66331    1.1100261     43986997 0.00060563412    485.24425    2879.2994   -2.6543763    52.548826     435.3498            0 
  841000       841000    159.96773    0.9184539     44022846 0.00060514094    495.77976      2879.47   -2.5001719    57.584888    440.69505            0 
  841500       841500    160.38109    1.1656441     44032203 0.00060501233    489.63078    2879.4805   -2.5181197    55.745233    436.40367            0 
  842000       842000    160.30116    1.1947996     44042761 0.0006048673    491.57291    2880.2316   -2.6637509    54.074449    440.16221            0 
  842500       842500     159.5556     1.255428     44042832 0.00060486632    502.64431    2880.1934   -1.4056734    55.134044    448.91594            0 
  843000       843000    160.24649   0.96754508     44036120 0.00060495852    492.64391     2880.488   -2.2348793    55.157886     439.7209            0 
  843500       843500    159.87992   0.79887624     44023049 0.00060513814    497.88932    2880.2711     -1.75128    56.777322    442.86328            0 
  844000       844000    159.83218    0.7427692     43993768 0.0006055409    499.45193    2881.1224   -1.9673746     57.93864    443.48066            0 
  844500       844500    159.86975   0.54236345     43975673 0.00060579006     497.3329    2879.5631   -3.4408308    58.630022    442.14371            0 
  845000       845000    160.01367   0.73099083     43992967 0.00060555193    494.83974    2879.2145   -3.2668465    56.178297    441.92829            0 
  845500       845500    160.27845    0.7327448     44007654 0.00060534984    492.41588    2880.7362   -2.1236921     58.06288     436.4767            0 
  846000       846000    159.43198   0.77501744     44001748 0.00060543109    505.59577    2881.3028   -2.0596431    59.112428    448.54298            0 
  846500       846500    160.21991   0.88931812     44002552 0.00060542002    492.16142    2879.6094   -3.1310237    55.259371    440.03307            0 
  847000       847000      159.956   0.85901193     44010833 0.0006053061    496.47073    2879.9862   -2.6612799    57.056403    442.07561            0 
  847500       847500    159.29793    1.0320304     44006737 0.00060536244    507.18784    2880.8973   -2.3996395    57.271037    452.31644            0 
  848000       848000    159.95476   0.80202546     44020123 0.00060517836    496.80758    2880.3046    -2.261841    56.010109    443.05931            0 
  848500       848500    160.18645   0.81233288     44045828 0.00060482518    494.09062      2881.04   -1.8903737    56.768114    439.21288            0 
  849000       849000    159.93643   0.87923224     44065074 0.00060456102    497.57955    2880.8034   -2.3580108    58.239877    441.69769            0 
  849500       849500    160.26891   0.79279167     44086869 0.00060426214    493.63495    2881.8131   -1.1386999    56.011615    438.76204            0 
  850000       850000    160.15535   0.90639069     44079689 0.00060436057    494.91621    2881.4022   -1.6006009    58.318567    438.19824            0 
  850500       850500    160.00593    1.0594522     44091401 0.00060420003    496.89978    2881.1593   -2.4055662    59.246174    440.05917            0 
  851000       851000    159.68595    1.1394056     44116662 0.00060385407    500.55565     2880.047   -3.2680605    56.662531    447.16118            0 
  851500       851500    160.11247   0.91887666     44160708 0.00060325179    494.34833    2880.1954   -2.6916307    58.267003    438.77295            0 
  852000       852000    159.74848   0.94653601     44186921 0.00060289392    501.40112    2881.8242   -2.2498385    58.248962      445.402            0 
  852500       852500    160.79195   0.74278068     44197697 0.00060274692    484.87824    2880.8502   -2.3396928    54.822855    432.39508            0 
  853000       853000    159.81855    0.8534739     44194638 0.00060278865    499.55851    2881.0258   -2.3486147    58.043026     443.8641            0 
  853500       853500    160.20422   0.80275941     44168046 0.00060315156    494.33444    2881.5486   -2.0057334    58.087864    438.25231            0 
  854000       854000    159.92486   0.83579079     44145534 0.00060345914    497.80902    2880.8604    -2.522808    56.434633     443.8972            0 
  854500       854500    159.87619   0.70594561     44132589 0.00060363615    499.21724    2881.5435   -1.8368492    56.166444    444.88765            0 
  855000       855000    160.15835   0.81224516     44110830 0.00060393391    494.27209    2880.8027   -2.7044692    56.901326    440.07523            0 
  855500       855500    159.56673   0.95060466     44117323 0.00060384502    503.22082    2880.9358   -2.4878591    57.536764    448.17192            0 
  856000       856000    160.07052    1.1212891     44144779 0.00060346946    494.70034    2879.9222   -3.5507371    57.456119    440.79495            0 
  856500       856500    160.09297    1.0371138     44187493 0.00060288611    495.78103    2881.3376   -1.3940852     57.47122    439.70389            0 
  857000       857000    159.78828    1.0775017     44209467 0.00060258646    499.64746    2880.6637   -2.8920346    59.680984    442.85851            0 
  857500       857500    159.40931   0.89786962     44220323 0.00060243852    504.84344    2880.2126   -3.1701173    57.470109    450.54345            0 
  858000       858000    160.45949   0.69459211     44209355 0.00060258798    489.89716    2880.9152     -2.33725    56.840154    435.39425            0 
  858500       858500    160.32595   0.70682267     44199630 0.00060272056    492.28016    2881.3083   -2.2041605    58.242957    436.24136            0 
  859000       859000    160.23612   0.85120651     44168284 0.00060314831    493.28531    2880.9749   -2.1864994    56.481761    438.99005            0 
  859500       859500    160.12446    1.2252975     44125407 0.00060373439     494.4271    2880.4528   -3.2791086    56.147892    441.55832            0 
  860000       860000    160.20085       1.1405     44131682 0.00060364855    493.58928    2880.7532   -1.9911719    57.042222    438.53823            0 
  860500       860500    160.15046    1.3136507     44149349  0.000603407    493.85242    2880.2656   -2.6879492    54.327086    442.21328            0 
  861000       861000    160.24344    1.2657985     44158611 0.00060328044    492.83209    2880.6307     -2.84358    56.847303    438.82837            0 
  861500       861500     160.1401     1.051205     44151215 0.0006033815    494.13729    2880.3961   -2.1628729    56.790531    439.50963            0 
  862000       862000    159.83524   0.85586094     44158390 0.00060328346    500.21369    2881.9296   -1.2200667    56.942349     444.4914            0 
  862500       862500     160.4116    0.7670516     44144790 0.00060346931    490.41125    2880.7157   -2.9479712    58.767763    434.59145            0 
  863000       863000    159.24847   0.92528579     44141254 0.00060351766    508.70688    2881.6793   -1.6848907    58.695159    451.69661            0 
  863500       863500    160.30956   0.92734365     44132717 0.00060363439    492.61932    2881.4032   -1.7816082    55.769904    438.63102            0 
  864000       864000    159.69676    1.0939995     44135144 0.0006036012    500.79887    2880.4514   -3.2728843    60.815099    443.25666            0 
  864500       864500    159.61389    1.4034983     44141803 0.00060351014    502.14312    2880.5608   -2.9165255    56.368544     448.6911            0 
  865000       865000    160.45922    1.2594228     44156921 0.00060330352    490.94058    2881.9545   -1.5032993    56.254946    436.18893            0 
  865500       865500    159.81361    1.3122222     44169644 0.00060312973     500.9339    2882.3276   -1.6665389     57.71479    444.88565            0 
  866000       866000    160.36408    1.2562615     44166431 0.00060317362    491.76026    2881.3565  -0.97310152    54.055141    438.67822            0 
  866500       866500    160.29012    1.2668442     44176417 0.00060303727    493.16087    2881.6551   -1.4659951    56.160319    438.46655            0 
  867000       867000    159.72386    1.3340531     44198713 0.00060273307    500.99406    2881.0504   -2.0355006    58.326918    444.70264            0 
  867500       867500    160.11036    1.3444455     44232701 0.00060226993    495.57562    2881.3912   -2.2610134    57.430986    440.40565            0 
  868000       868000    160.59641    1.3397963     44251251 0.00060201747    486.95542    2880.0137   -3.4235774    56.027305     434.3517            0 
  868500       868500    160.03083    1.3949763     44238279 0.00060219399    496.07297    2880.7035    -2.562773    53.827403    444.80834            0 
  869000       869000     160.1509    1.3335387     44205745 0.00060263719     494.4747    2880.8944   -3.1117767    58.454985    439.13149            0 
  869500       869500    160.31319     1.205023     44190978 0.00060283857    493.08961    2881.9276   -1.5732647    57.564997    437.09787            0 
  870000       870000    159.92477    1.3888878     44170738 0.00060311481    498.79182    2881.8419   -1.9157023    55.799021     444.9085            0 
  870500       870500    159.89936    1.3651282     44192384 0.00060281938    497.69798    2880.3694   -3.2052274    57.096235    443.80698            0 
  871000       871000    160.49825      1.16428     44246083 0.00060208779    488.29411    2879.8896   -2.7947609    53.590114    437.49876            0 
  871500       871500    159.95363    1.1861755     44264191 0.00060184148    497.95024    2881.4304   -2.6716999    57.075669    443.54628            0 
  872000       872000     159.7901    1.0874893     44262126 0.00060186956    500.07662      2881.12   -2.8957458    58.262979    444.70939            0 
  872500       872500    159.86667    1.2119072     44277164 0.00060166514    497.96628    2880.1506   -2.6385225    54.639502     445.9653            0 
  873000       873000    160.31634    1.2818375     44289876 0.00060149244    492.57872    2881.4636  -0.80756587      56.5421    436.84418            0 
  873500       873500    160.33617    1.3508244     44286458 0.00060153887    490.32814    2879.5085   -3.3009876    56.220508    437.40862            0 
  874000       874000    159.79875    1.6827377     44294987 0.00060142304    499.13679    2880.3091   -4.4398561    57.311404    446.26524            0 
  874500       874500    160.38622    1.5236636     44313725 0.00060116873    491.86528    2881.7915   -2.3560067    59.171635    435.04965            0 
  875000       875000    160.10576    1.4064837     44326738 0.00060099225    496.79563    2882.5427   -2.0501496    56.522723    442.32306            0 
  875500       875500    160.33761    1.3441334     44316903 0.00060112562    492.65921    2881.8611   -2.3054223    56.560774    438.40385            0 
  876000       876000    159.79919    1.0586512     44301360 0.00060133652    500.97187    2882.1507   -2.4476067    58.015569     445.4039            0 
  876500       876500    160.45385   0.97959966     44305137 0.00060128526    492.17484    2883.1088   -1.5881929    57.489261    436.27377            0 
  877000       877000    159.61348    1.0018259     44319055 0.00060109643    504.35846    2882.7699    -1.781694    59.867719    446.27244            0 
  877500       877500    159.78908   0.93556701     44326678 0.00060099306    501.34163    2882.3698   -1.9605906    56.284233    447.01799            0 
  878000       878000    160.82883    1.1024824     44347117 0.00060071607    485.86944     2882.391   -1.5947963    54.823454    432.64078            0 
  878500       878500    159.49733    1.2888712     44342370 0.00060078039    506.30749    2882.9883   -1.6272605    57.878655     450.0561            0 
  879000       879000    159.80062    1.1168223     44319683 0.00060108792    500.85996    2882.0601   -0.8010182    62.117327    439.54365            0 
  879500       879500    159.43818   0.79083538     44355575 0.00060060152    506.46147    2882.2609   -1.2973016    59.274332    448.48444            0 
  880000       880000    160.16846   0.56012864     44406212 0.00059991665    495.78272    2882.4641   -2.5636434    59.739436    438.60693            0 
  880500       880500    160.14347   0.40385794     44439611 0.00059946577    496.59518    2882.9042   -2.1184002    56.628131    442.08545            0 
  881000       881000    159.82255   0.27799809     44459768  0.000599194    501.43648    2882.9634   -1.5681949    60.005051    442.99962            0 
  881500       881500     159.7278     0.307504     44457192 0.00059922871    502.81965    2882.9347   -2.3034616    61.211333    443.91177            0 
  882000       882000    160.07418   0.57933655     44459633 0.00059919581    497.71474    2882.9912   -2.2451552    57.816164    442.14373            0 
  882500       882500    159.62535   0.92305985     44463927 0.00059913794     505.1519    2883.7404   -1.3246141     57.40477    449.07174            0 
  883000       883000    160.43958    1.0198511     44451196 0.00059930955    493.08048    2883.8018   -1.5197062    56.479108    438.12107            0 
  883500       883500    159.92071    1.2448865     44455013 0.00059925808    500.42262    2883.4122   -2.1208918    57.615529    444.92798            0 
  884000       884000    159.69177    1.2732598     44448220 0.00059934967    503.94477    2883.5229   -1.4556064     60.36637      445.034            0 
  884500       884500    159.95929    1.3350702     44453095 0.00059928393    500.08075    2883.6453   -1.8061957     57.24276    444.64419            0 
  885000       885000    160.31622    1.2731255     44437703 0.00059949151    494.47651    2883.3597   -1.7002395    56.896551     439.2802            0 
  885500       885500    159.83207    1.1533696     44425768 0.00059965257    502.46326     2884.132   -1.4642216    57.705082     446.2224            0 
  886000       886000    159.96512    1.1241273     44416134 0.00059978263    499.07574    2882.7271   -3.1285324    57.902881    444.30139            0 
  886500       886500    159.93708    1.0583408     44422874 0.00059969163    500.27826    2883.5118   -2.3671767    58.851857    443.79358            0 
  887000       887000     160.4259   0.99107903     44405817 0.00059992199     493.6774    2884.1949   -1.7678925    59.965392     435.4799            0 
  887500       887500    160.35869    1.0986021     44368076 0.0006004323    494.83529    2884.3513   -1.4880144     57.18197    439.14134            0 
  888000       888000    159.93213    1.1349986     44331396 0.0006009291    500.04422     2883.204   -2.2584987    57.152191    445.15053            0 
  888500       888500    159.85667    1.1866423     44316598 0.00060112977    499.93169    2881.9671   -3.8105341    58.033091    445.70913            0 
  889000       889000    160.42349    1.1649917     44346070 0.00060073026    491.83735    2882.3188   -3.7676559    57.844033    437.76097            0 
  889500       889500    159.97968      1.20722     44448392 0.00059934735    498.21135    2882.0797   -2.7307864    57.092794    443.84934            0 
  890000       890000    160.14814    1.2672622     44533264 0.00059820511    496.34618    2882.7247   -3.3149101    59.784546    439.87655            0 
  890500       890500    160.09255    1.4348987     44571083 0.00059769752    497.22697    2882.7772    -2.997466    56.282344    443.94209            0 
  891000       891000    160.47768    1.1968829     44578934 0.00059759226     491.6743    2882.9633   -3.2361935    58.006654    436.90384            0 
  891500       891500     159.9929   0.99915645     44598406 0.00059733135    499.56673     2883.632   -1.4615712     60.94186    440.08644            0 
  892000       892000    159.93079   0.98860135     44609715 0.00059717992    500.01002    2883.1498   -2.6921183    58.705972    443.99617            0 
  892500       892500    160.29983   0.81610419     44605311 0.00059723888    494.31649    2882.9554     -2.95379    59.106459    438.16382            0 
  893000       893000     160.3451    1.0314121     44565959 0.00059776624    494.16231    2883.4758   -3.5370838    57.350586     440.3488            0 
  893500       893500    159.89206    1.1688145     44528687 0.00059826659    499.66458    2882.2273   -4.0293316     59.71746    443.97645            0 
  894000       894000    160.47223    1.2789901     44530784 0.00059823842    492.22288    2883.4308   -2.5319635    57.933022    436.82182            0 
  894500       894500    160.34779    1.3173523     44557203 0.00059788371    494.25493    2883.6084   -2.3701474    56.689096    439.93598            0 
  895000       895000    159.68261    1.2350371     44579835 0.00059758018    503.27889    2882.7205   -4.3038838    60.399978    447.18279            0 
  895500       895500     159.7397    0.9494719     44627648 0.00059693995    502.41636    2882.7087   -3.0237528    57.583231    447.85688            0 
  896000       896000    160.16912   0.82812843     44672077 0.00059634625    496.61152    2883.3027   -1.9702675    60.511115    438.07067            0 
  896500       896500    159.79141   0.91044112     44702879 0.00059593535    502.94391    2884.0068   -2.2669314    57.231178    447.97966            0 
  897000       897000    159.94114    1.0082205     44705235 0.00059590394    501.32125    2884.6153   -2.2512553    57.507273    446.06523            0 
  897500       897500    160.05582     1.103124     44701199 0.00059595775    498.66304    2883.6659   -2.1305906      59.8734    440.92023            0 
  898000       898000    160.13719     1.202378     44691558 0.00059608631    497.11212    2883.3275   -1.9665214    57.447117    441.63153            0 
  898500       898500    159.94562     1.360355     44675823 0.00059629626    499.47552    2882.8364   -4.2907956    58.342027    445.42428            0 
  899000       899000    159.83897    1.5920551     44700436 0.00059596792    500.73885    2882.5105   -3.8373802    58.553519    446.02271            0 
  899500       899500    160.55682    1.4918715     44750025 0.00059530751    490.18365     2882.652   -3.4340809    53.942255    439.67547            0 
  900000       900000    159.93254    1.6620654     44814403 0.00059445233    499.65688    2882.8228   -3.3251547    57.362583    445.61945            0 
  900500       900500    160.41306    1.4522515     44843147 0.00059407128    493.89601    2884.2222   -2.1563868     56.38867    439.66372            0 
  901000       901000    160.47775     1.218724     44831279 0.00059422855    492.85599    2884.1461   -1.7569184    55.748862    438.86404            0 
  901500       901500    160.20937    1.0902634     44801694 0.00059462095    497.12303    2884.4139   -2.6972386    57.965462    441.85481            0 
  902000       902000    159.86418    1.0330716     44781709 0.00059488632    501.72909    2883.8763   -3.0437444    59.954581    444.81825            0 
  902500       902500    160.10947    1.0385217     44765715 0.00059509886    497.43845    2883.2408   -3.2843725    59.868209    440.85461            0 
  903000       903000     159.7674    1.1521481     44751155 0.00059529248    504.36375    2885.0688   -1.7652707    59.203002    446.92601            0 
  903500       903500    160.11547   0.85494679     44761023 0.00059516123    499.13585    2885.0276   -1.7156319    58.913723    441.93775            0 
  904000       904000    160.02664   0.79212966     44784960 0.00059484314    500.53841    2885.1065    -1.277384    58.948513    442.86728            0 
  904500       904500    159.61189   0.78184567     44811774 0.0005944872    505.24707     2883.635    -2.848629    58.784705    449.31099            0 
  905000       905000    159.82779   0.62892603     44849613 0.00059398564     503.5187    2885.1237  -0.64615226    59.285479    444.87937            0 
  905500       905500      160.433   0.38536902     44896577 0.0005933643    493.57984     2884.203   -2.3471147     59.46588    436.46107            0 
  906000       906000    159.09024   0.63481565     44928620 0.00059294111    513.47968    2884.0944   -3.1824929    60.787921    455.87426            0 
  906500       906500    160.22706   0.26427382     44914489 0.00059312767    496.77696    2884.3315   -2.1984332    60.333744    438.64165            0 
  907000       907000    159.74678   0.48952554     44888221 0.00059347475    505.24261    2885.6405   -1.5270973    61.642386    445.12732            0 
  907500       907500    160.29806   0.69281365     44851051 0.00059396659    496.39232    2885.0049   -2.3036255    60.223945      438.472            0 
  908000       908000    159.93479   0.88347541     44838769 0.00059412929     501.4681    2884.6676   -2.4933263    58.677843    445.28358            0 
  908500       908500    159.72293    0.8949297     44842140 0.00059408463    504.07778    2884.1202   -2.5548963    57.908961    448.72372            0 
  909000       909000    160.13021   0.83752157     44854955 0.0005939149    498.75592    2884.8673   -2.3193903    57.670296    443.40501            0 
  909500       909500    160.35674   0.80786044     44880460 0.00059357738    495.63786    2885.1248   -1.3900611    59.083211    437.94471            0 
  910000       910000    159.78732   0.55900407     44904951 0.00059325365    504.25491    2885.2569   -1.9616844     59.39141    446.82518            0 
  910500       910500    160.02984   0.65619261     44909169 0.00059319793    500.01975    2884.6355   -2.9153529    57.205077    445.73003            0 
  911000       911000     159.8866    0.6206156     44912265 0.00059315703      502.388    2884.8693   -2.6274184    60.968714     444.0467            0 
  911500       911500    158.99205   0.87439094     44912394 0.00059315534    515.53333    2884.6849   -3.2138309     60.33528    458.41188            0 
  912000       912000    160.05316   0.73291563     44939228 0.00059280115    499.67095    2884.6342   -3.1498813    60.503788    442.31705            0 
  912500       912500    159.93326    1.0740109     44979685 0.00059226795    501.89984    2885.0765   -3.0688361    61.781039    443.18764            0 
  913000       913000    159.64671    1.1400732     45028753 0.00059162255    505.32413    2884.2308   -3.9056345    60.692695    448.53707            0 
  913500       913500    159.70448     1.037398     45072754  0.000591045    505.71935     2885.487   -2.2604644    61.156768    446.82305            0 
  914000       914000    159.86468    1.1560647     45067792 0.00059111007    503.77415    2885.9289   -2.5555938    59.616302    446.71344            0 
  914500       914500    160.13494    0.9808257     45052860 0.00059130599    498.96775    2885.1496   -2.5841036    58.783046    442.76881            0 
  915000       915000     160.5279   0.84381808     45031237 0.00059158992    494.79543    2886.8328   -2.0538128    57.920708    438.92853            0 
  915500       915500    159.94585    1.0036279     45013654  0.000591821    502.70484    2886.0691   -1.9252682    59.854544    444.77556            0 
  916000       916000    160.25894   0.83398464     44974610 0.00059233479    497.82785    2885.8575   -2.3655779    58.861141    441.33228            0 
  916500       916500    160.52698    0.7762323     44912729 0.00059315091    492.65713    2884.6808   -3.5084762     59.31717    436.84844            0 
  917000       917000    159.40351   0.91120118     44899810 0.00059332157    510.70034     2885.983   -1.8423299    59.829297    452.71337            0 
  917500       917500    160.10825   0.84896873     44901339 0.00059330137    501.08977    2886.8739   -1.5943994    61.511171      441.173            0 
  918000       918000    159.39725   0.90745059     44901114 0.00059330434    510.61002    2885.7995   -2.3650641    60.028585     452.9465            0 
  918500       918500    160.33655   0.79414411     44912194 0.00059315797    496.66341    2885.8494    -2.601593    60.697659    438.56735            0 
  919000       919000    160.03145   0.94006373     44935051 0.00059285625    500.39511    2885.0348   -3.4012492    59.480412    444.31594            0 
  919500       919500    160.01368    1.0767101     44951817 0.00059263513    500.83729    2885.2123   -3.0179366    59.023373    444.83185            0 
  920000       920000    159.67792      1.13013     44956288 0.00059257619    507.27494    2886.6466   -2.1825283    58.994673    450.46279            0 
  920500       920500    159.86599    1.2965575     44934377 0.00059286514     504.3322    2886.5064   -2.1945385    57.787071    448.73966            0 
  921000       921000    160.54289    1.0410323     44937135 0.00059282876    492.98255    2885.2433   -3.7749658    59.296214     437.4613            0 
  921500       921500    160.02639   0.90868977     44956728 0.00059257039    500.02801    2884.5924   -3.1529545    57.976633    445.20433            0 
  922000       922000    160.47084    1.1210391     44968797 0.00059241135    494.28018    2885.4673    -2.626424    57.914759    438.99185            0 
  922500       922500    160.14946    1.0592229     44983235 0.00059222121    500.49868    2886.8968   -2.2562204    59.399756    443.35514            0 
  923000       923000     160.0909     1.110501     44987197 0.00059216905    501.59197    2887.1177   -1.2929258    59.802805    443.08209            0 
  923500       923500    160.06903    1.2204073     44983535 0.00059221726    500.94075    2886.1405   -2.3346809    60.415293    442.86014            0 
  924000       924000    160.46098    1.1368787     44942395 0.00059275938    495.30201    2886.3422   -3.0725487    59.665587    438.70897            0 
  924500       924500    159.50234    1.5100602     44902170 0.00059329039    507.83445    2884.5899   -4.0298614    58.751629    453.11268            0 
  925000       925000    160.35645    1.3583105     44905721 0.00059324348    495.50752    2884.9901    -4.151823    60.153086    439.50626            0 
  925500       925500    160.30987    1.3198918     44891788 0.0005934276    495.41072    2884.1992   -4.9673253    57.225258    443.15279            0 
  926000       926000    160.57878    1.3889786     44839114 0.00059412471     493.0004    2885.7959   -3.1247719    58.359986    437.76518            0 
  926500       926500    159.54773     1.402888     44784216 0.00059485301    508.20765    2885.6395    -3.410151    62.593622    449.02418            0 
  927000       927000    160.46269    1.2186922     44734520 0.00059551384    495.46298    2886.5286   -1.9075338    58.788794    438.58172            0 
  927500       927500    160.23611    1.1810347     44695417 0.00059603485    498.91383    2886.6032   -2.7648107    55.245152    446.43349            0 
  928000       928000    160.12837   0.94731715     44691785 0.00059608328    500.44414    2886.5281   0.96330008    60.792423    438.68842            0 
  928500       928500    159.59811    0.7233008     44730867 0.00059556248    508.96483    2887.1473   -1.1573274    60.344644    449.77752            0 
  929000       929000    160.04396   0.55206707     44746710 0.00059535161    502.40483    2887.2309   -2.1896484    62.600733    441.99375            0 
  929500       929500    159.90842   0.66082298     44751180 0.00059529214    503.60536    2886.4118   -3.3556703    60.828371    446.13266            0 
  930000       930000    159.90559   0.72454929     44757690 0.00059520555    501.52678     2884.291   -4.6957638    59.927715    446.29483            0 
  930500       930500     159.7542   0.66365226     44728154 0.0005955986    505.30733    2885.8157   -3.9807609    62.593998     446.6941            0 
  931000       931000    160.07158   0.80969504     44686386 0.0005961553    500.05033    2885.2881   -3.9008847    61.973432    441.97778            0 
  931500       931500    159.55172   0.85467395     44678048 0.00059626655    509.93808    2887.4293  -0.99086317     59.78569    451.14326            0 
  932000       932000    160.31646   0.64227414     44708332 0.00059586266    498.10211    2886.9888   -2.0629682    59.242201    440.92288            0 
  932500       932500    159.91992   0.71917293     44710920 0.00059582818    503.05195    2886.0299   -3.2448265    60.406652    445.89012            0 
  933000       933000    160.17214   0.79256062     44713245 0.00059579719    500.40003    2887.1363   -2.1392152    60.793585    441.74566            0 
  933500       933500     159.8357    1.1051368     44704056 0.00059591966    505.92045    2887.6433   -1.6642925    61.479156    446.10559            0 
  934000       934000    160.07778    1.1528388     44698468 0.00059599417    502.16898    2887.4992   -1.7575365     59.95863    443.96789            0 
  934500       934500    160.08279    0.9586016     44695448 0.00059603443    502.06121    2887.4659   -1.7151666     57.47577    446.30061            0 
  935000       935000    159.98906   0.89865962     44706509 0.00059588696    502.94035    2886.9484   -2.5982101    58.640169    446.89839            0 
  935500       935500    159.66831   0.90952081     44742801 0.00059540362    507.11225    2886.3409   -3.5508039    62.255674    448.40738            0 
  936000       936000     159.6664   0.92542696     44796332 0.00059469212    508.48217    2887.6823   -1.9810903    60.630473    449.83279            0 
  936500       936500    160.11852   0.74250069     44814978 0.0005944447    501.25314    2887.1903   -2.3218968    59.694402    443.88064            0 
  937000       937000    159.62236   0.92718509     44799735 0.00059464695    508.06626    2886.6102    -2.475773    59.912241    450.62979            0 
  937500       937500    160.17377   0.80308346     44784264 0.00059485238    500.68942    2887.4499   -2.1617287    62.434054    440.41709            0 
  938000       938000    159.90969    0.8097403     44800574 0.00059463582    503.02049    2885.8458   -3.5304677    62.683425    443.86753            0 
  938500       938500    159.79219   0.73879203     44867794 0.00059374495    506.95567    2888.0302    -1.488363    62.727498    445.71654            0 
  939000       939000    160.27428    0.8309938     44912022 0.00059316024     499.3331    2887.5913   -2.1732012    59.792242    441.71406            0 
  939500       939500    160.16479   0.86069392     44960893 0.0005925155    501.03276    2887.6594   -2.5410476    60.280792    443.29302            0 
  940000       940000    160.00146   0.95341043     45021101 0.00059172311    502.65036    2886.8432    -2.722017    59.984855    445.38752            0 
  940500       940500    159.78878   0.95096161     45038657 0.00059149246    505.77753    2886.8013   -2.6709601    60.087823    448.36066            0 
  941000       941000    159.81676   0.84723824     45033450 0.00059156085    506.37526    2887.8159   -1.8390641    63.140475    445.07384            0 
  941500       941500    160.45238   0.88987072     45010912 0.00059185706    496.65204     2887.564    -2.468468     61.34348    437.77702            0 
  942000       942000    159.72058    1.1218542     44967377 0.00059243006    507.47762    2887.4851   -2.5648746    60.102327    449.94016            0 
  942500       942500    160.26646    1.1508602     44916288 0.0005931039    499.43166    2887.5733    -2.315191    60.692752     441.0541            0 
  943000       943000    160.43366   0.99323942     44850602 0.00059397254    496.01738    2886.6505   -3.8035777    60.737049    439.08391            0 
  943500       943500    160.28619    1.0458003     44810482 0.00059450434    498.76222    2887.1979   -2.3261502    59.593473    441.49489            0 
  944000       944000    159.92046   0.97819565     44801536 0.00059462304    504.28149    2887.2674   -2.4444931    62.264582     444.4614            0 
  944500       944500    159.84598    1.0209908     44816477 0.00059442481    505.77718    2887.6532   -1.7176719    64.024033    443.47082            0 
  945000       945000    160.13767    1.1111963     44838582 0.00059413176    501.55835     2887.781   -2.0678324    60.378729    443.24745            0 
  945500       945500    159.94827    1.0539456     44852188 0.00059395154    504.28738    2887.6876   -2.4766088    58.616926    448.14706            0 
  946000       946000    159.95288   0.92449323     44855250 0.00059391099    502.65026    2886.1192   -3.9604729    60.278944    446.33179            0 
  946500       946500    159.72646   0.87305289     44863704 0.00059379908    507.02836    2887.1234   -2.4573007    62.875369    446.61029            0 
  947000       947000    159.33173   0.85096955     44867056 0.00059375471    512.99724    2887.2105   -3.0758649    63.567552    452.50555            0 
  947500       947500    160.23414   0.79274378     44926160 0.00059297357    499.41573    2887.0757   -2.9307086    62.511661    439.83478            0 
  948000       948000    160.28854   0.77444101     44978557 0.0005922828    498.49691    2886.9676   -3.0113049    60.927722    440.58049            0 
  948500       948500    159.47423    1.0421252     45003157 0.00059195904    511.66505    2888.0017   -2.7542372    64.501068    449.91822            0 
  949000       949000    159.78754   0.80451707     44999167 0.00059201153    507.24475      2888.25   -2.0455206    62.279685    447.01059            0 
  949500       949500    159.81591   0.99554552     44992962 0.00059209318    506.58696     2888.015   -2.8526951     60.34438    449.09527            0 
  950000       950000    160.01638    1.1674772     44972254 0.00059236581    502.75306    2887.1683   -2.8099379    60.990968    444.57203            0 
  950500       950500    159.60894     1.429167     44951475 0.00059263964    509.09456    2887.4384   -2.7716828    60.803636    451.06261            0 
  951000       951000    160.10389    1.3544448     44916669 0.00059309887    503.10151    2888.8207   -1.3454677    60.845312    443.60166            0 
  951500       951500     159.7583    1.4659577     44880002 0.00059358344    507.40681    2887.9763   -2.1077851    61.641266    447.87333            0 
  952000       952000    160.00898    1.3159807     44854385 0.00059392245      503.637    2887.9419   -2.5987583    61.147787    445.08797            0 
  952500       952500    160.53136     1.132259     44831947 0.0005942197    495.06868    2887.1577   -2.6877832    58.326449    439.43001            0 
  953000       953000    159.94713   0.95894292     44833598 0.00059419781    504.38125    2887.7646   -2.5034551    64.081332    442.80337            0 
  953500       953500    160.31026   0.85939061     44879447 0.00059359078    499.11694    2887.9113   -2.4617942    62.786182    438.79255            0 
  954000       954000    159.74539    0.7406946     44953712 0.00059261015    508.54358    2888.9207  -0.86589983     61.11458     448.2949            0 
  954500       954500    159.89796   0.60308109     45021969 0.0005917117    505.83558    2888.4862   -2.0716561    62.967477    444.93976            0 
  955000       955000    160.21327   0.79364837     45065546 0.00059113953     501.6358    2888.9849   -1.7792083    59.773789    443.64122            0 
  955500       955500    159.91214   0.96297253     45069188 0.00059109176    505.95032    2888.8123   -2.5753033    62.140504    446.38512            0 
  956000       956000    159.69991    0.9674613     45057351 0.00059124705    508.74005    2888.4396   -2.2493372    62.970096     448.0193            0 
  956500       956500    159.98809   0.97801823     45056236 0.00059126168    504.91719    2888.9108  -0.76119851    60.378925    445.29946            0 
  957000       957000    160.05926   0.82114242     45071711 0.00059105867    504.24504    2889.2992   -1.9959715    65.291291    440.94972            0 
  957500       957500    159.63356   0.83857746     45080582 0.00059094237    510.14642    2888.8572   -2.4136928    64.359093    448.20102            0 
  958000       958000    159.75476   0.78485069     45096493 0.00059073387    508.68301    2889.1997   -1.8681261     65.42824     445.1229            0 
  958500       958500    159.78317   0.87805604     45101517 0.00059066807    508.45252    2889.3926   -2.3416643    61.544912    449.24928            0 
  959000       959000    159.88035   0.96777383     45116994 0.00059046544    506.53653    2888.9247   -2.0728567    59.325146    449.28424            0 
  959500       959500    160.45721   0.96688694     45126367 0.0005903428    497.99647    2888.9805   -2.3979612    61.727946    438.66649            0 
  960000       960000    159.67023     1.145367     45133695 0.00059024696    509.43441    2888.6916   -2.6359784    59.317252    452.75313            0 
  960500       960500    160.11891    1.0114458     45155895 0.00058995677    502.71243    2888.6554   -2.4209271    62.611208    442.52215            0 
  961000       961000    160.19148    0.9389845     45165837 0.00058982691    501.51404    2888.5385   -2.5462502     60.83693    443.22336            0 
  961500       961500    159.65018    1.1050756     45182300 0.00058961199    509.78391    2888.7423   -2.3074839    60.919265    451.17213            0 
  962000       962000    160.50061     1.015553     45200498 0.00058937462    495.78917      2887.42   -3.6143417    61.371708     438.0318            0 
  962500       962500    160.35848   0.98725578     45217036 0.00058915905    499.20493    2888.7178      -2.5832    60.826899    440.96124            0 
  963000       963000    159.88023    1.1705175     45211261 0.00058923431    505.44397    2887.8304   -3.8252562    61.699825     447.5694            0 
  963500       963500    159.28551    1.1100121     45217240 0.0005891564     515.7541    2889.2785   -2.3849392    63.088659    455.05037            0 
  964000       964000    160.10325    1.0118274     45222249 0.00058909113    503.18913    2888.8987   -2.6687451    60.826015    445.03186            0 
  964500       964500    160.35271   0.75490877     45228946 0.0005890039    499.33725    2888.7641   -2.3364993    62.116736    439.55701            0 
  965000       965000    159.60885   0.99115352     45235650 0.00058891662    511.64223    2889.9848   -1.5174788    61.729898    451.42981            0 
  965500       965500    160.28849    1.1138026     45236137 0.00058891027    500.92877    2889.3986   -1.9434249    60.382483    442.48972            0 
  966000       966000    160.01541    1.1040785     45238733 0.00058887647    504.25159    2888.6523   -2.2695075    60.926138    445.59496            0 
  966500       966500    160.26674    1.1452795     45262118 0.00058857224    499.92329    2888.0691   -3.0111201    60.319951    442.61446            0 
  967000       967000     160.0492    1.0510235     45281028 0.00058832643     502.4554    2887.3597   -4.2978575    61.437833    445.31543            0 
  967500       967500    160.09431    1.1117382     45283109 0.0005882994    503.21731    2888.7937   -2.7572699     63.66758      442.307            0 
  968000       968000    160.19319    1.2529864     45239835 0.00058886214    500.89511     2887.945   -4.0389264    60.670392    444.26364            0 
  968500       968500    160.15263    1.5141272     45206402 0.00058929764     502.0951    2888.5406   -2.9812533    59.432187    445.64417            0 
  969000       969000    159.57972    1.5742846     45194663 0.0005894507    511.68669    2889.5951  -0.28699681     61.65486    450.31882            0 
  969500       969500    160.02769    1.5126162     45228489 0.00058900986    503.94093    2888.5247   -2.4073423    62.450347    443.89792            0 
  970000       970000    159.93406    1.3739488     45234073 0.00058893714    505.31881    2888.5073   -2.9361681      61.8846    446.37038            0 
  970500       970500    160.08374    1.2769657     45249141 0.00058874103    503.69777    2889.1167   -2.5716084     60.03546    446.23392            0 
  971000       971000     159.7152    1.2647092     45244036 0.00058880746    509.27736    2889.2046   -2.8728274    63.499241    448.65094            0 
  971500       971500     159.9273    1.0285658     45210801 0.00058924029    506.54081    2889.6287   -2.1162254    61.875387    446.78165            0 
  972000       972000    160.48075   0.90604361     45172605 0.00058973854    496.73832    2888.0731   -3.3501507    62.624038    437.46443            0 
  972500       972500    159.64182    1.1235203     45169205 0.00058978293    510.75032    2889.5841   -1.7573049    61.073214    451.43441            0 
  973000       973000    160.21348    1.3165394     45177485 0.00058967484    502.34428    2889.6964   -2.0781565      60.5275    443.89494            0 
  973500       973500    160.46164    1.1762869     45202128 0.00058935335    498.70957    2889.7596     -2.10046    62.496794    438.31323            0 
  974000       974000    159.57153    1.1089768     45213928 0.00058919954    511.30501    2889.0914   -3.2708649     63.38003    451.19585            0 
  974500       974500    160.26387    1.1439635     45244069 0.00058880703    500.54325    2888.6464   -3.1258763    64.065382    439.60374            0 
  975000       975000    159.70727    1.1459486     45273260 0.00058842738    509.53795    2889.3471    -2.204933     60.19853    451.54435            0 
  975500       975500    160.33217    1.1295695     45272463 0.00058843774    499.37582    2888.4967   -2.6280278    59.392292    442.61156            0 
  976000       976000    159.89071    1.2760902     45286119 0.0005882603    507.33068    2889.8733   -2.5172673    62.056027    447.79192            0 
  976500       976500    159.63858    1.1475153     45287785 0.00058823865    509.99194    2888.7775   -2.1411301    63.483241    448.64983            0 
  977000       977000    160.08942    1.1567961     45251753 0.00058870704    503.67423    2889.1777   -2.8782052    62.526346    444.02608            0 
  977500       977500    159.57464   0.98174957     45193731 0.00058946286    509.87996    2887.7128   -3.1682757    62.767017    450.28122            0 
  978000       978000    160.48524   0.86590849     45158153 0.00058992727    496.79142    2888.1932   -3.1745484    58.988782    440.97719            0 
  978500       978500    160.13822    0.8205632     45149293 0.00059004304    502.35991    2888.5906   -3.3211537     62.26482    443.41625            0 
  979000       979000    159.87355   0.64574129     45170977 0.00058975979    505.43269    2887.7196   -3.3405983    63.312227    445.46106            0 
  979500       979500    159.87649   0.65969508     45232389 0.00058895907    505.83999    2888.1707   -2.9894891    61.646361    447.18311            0 
  980000       980000    159.80092   0.55468425     45310478 0.00058794405    507.19775    2888.4024   -3.7231936    65.104861    445.81608            0 
  980500       980500    160.03621   0.68127758     45356302 0.00058735004    504.00345    2888.7141   -2.7694538     62.08372    444.68918            0 
  981000       981000    159.59902    0.6071811     45385080 0.00058697762    511.30007    2889.4962   -2.1540354     60.79731     452.6568            0 
  981500       981500    160.37223   0.54237922     45387949 0.00058694051    500.45836     2890.176   -1.7267852    62.426745     439.7584            0 
  982000       982000    159.75279   0.65117941     45381900 0.00058701875    508.97656     2889.464   -1.7399801    62.700751    448.01578            0 
  982500       982500     159.3582   0.70331394     45358937 0.00058731592    515.82679    2890.4344   -1.6105725    61.022226    456.41513            0 
  983000       983000    160.37902   0.65434468     45313188 0.00058790888    500.28069    2890.0997   -1.6158918    63.904929    437.99165            0 
  983500       983500    159.63168   0.68986391     45302561 0.0005880468    510.30569    2888.9884   -2.8230306    66.873592    446.25513            0 
  984000       984000    159.98954   0.63353144     45313058 0.00058791057    505.03221    2889.0475   -1.6842018    61.509636    445.20677            0 
  984500       984500     159.4909   0.70398814     45357811 0.0005873305    512.30032    2888.8853   -2.5455755    61.890692     452.9552            0 
  985000       985000    159.69061   0.43850029     45422097 0.00058649925    510.67759    2890.2384   -1.9872061    66.919147    445.74564            0 
  985500       985500    160.14457   0.46325998     45448364 0.00058616028    502.92489    2889.2502   -2.5919922    62.937943    442.57894            0 
  986000       986000    159.76251   0.51604189     45475706 0.00058580786    508.47078     2889.103   -2.7346189     63.07794    448.12746            0 
  986500       986500    160.18809   0.53005817     45477360 0.00058578655    503.78232    2890.7562   -1.5025958    64.979435    440.30548            0 
  987000       987000    159.58662   0.77813098     45453995 0.00058608767    512.04476    2890.0561   -2.1295368    60.087967    454.08633            0 
  987500       987500    160.00049    0.6368522     45435562 0.00058632544    505.90536    2890.0838   -1.7750063    63.092613    444.58775            0 
  988000       988000    160.15753   0.80998342     45434954 0.00058633329    502.95168    2889.4701   -2.8560894    62.631048    443.17672            0 
  988500       988500    159.90915   0.93959483     45452381 0.00058610848    506.66618    2889.4835   -2.8266162    62.195261    447.29754            0 
  989000       989000    160.16504   0.91382351     45473284 0.00058583906    501.37624    2888.0066   -4.5337335    64.108129    441.80184            0 
  989500       989500    159.96683   0.89822591     45489982 0.00058562401    504.69138    2888.3682   -3.4544449    65.762565    442.38326            0 
  990000       990000    160.15236      0.90121     45446464 0.00058618479    500.40096    2886.8424   -4.3087234    61.847242    442.86244            0 
  990500       990500    160.11572    1.0139191     45413517 0.00058661005    501.16937    2887.0648   -3.8134337    63.205025    441.77778            0 
  991000       991000    159.98699    1.0941946     45406416 0.0005867018    504.73051    2888.7078   -3.1210834    62.820723    445.03087            0 
  991500       991500    159.56664    1.1766742     45437522 0.00058630015    512.45395    2890.1675   -2.3098333    63.415828    451.34796            0 
  992000       992000    160.25139    1.2261598     45486554 0.00058566815      500.516    2888.4331   -3.7125894     64.96078    439.26781            0 
  992500       992500    159.80936     1.278365     45526060 0.00058515993    507.88786    2889.2183   -2.9232505    63.200726    447.61038            0 
  993000       993000    159.92439    1.1216458     45542533 0.00058494827    506.99531    2890.0397   -2.7769591    59.807254    449.96502            0 
  993500       993500    160.49361   0.87998249     45521523 0.00058521825     497.4011    2888.9276   -3.4367285    62.536618    438.30121            0 
  994000       994000    160.19762   0.75721042     45492965 0.00058558562     502.3659    2889.4817   -2.7016485    64.326826    440.74072            0 
  994500       994500    159.98257   0.74554281     45450001 0.00058613917    506.58499    2890.4963   -1.8079084    64.226725    444.16618            0 
  995000       995000    159.60961   0.93331924     45409155 0.00058666641    513.21813     2891.572   -1.1928109    64.512927    449.89802            0 
  995500       995500    159.48283    0.8834198     45388857 0.00058692877    514.76726    2891.2319   -0.3866493    64.455699    450.69821            0 
  996000       996000    159.92461   0.96641832     45374899 0.00058710931    507.55778    2890.6056   -2.0405101    61.967324    447.63097            0 
  996500       996500     160.0228   0.89512431     45356516 0.00058734727    505.11376    2889.6246   -2.5438101    64.394737    443.26284            0 
  997000       997000    159.81786   0.91995806     45359166 0.00058731296    508.98314    2890.4402   -2.2053747    64.980339    446.20817            0 
  997500       997500    160.41287   0.92372014     45371374 0.00058715493    500.54159    2890.8649   -1.7229465    62.411382    439.85315            0 
  998000       998000     160.1035   0.97807247     45384366 0.00058698685    504.76608    2890.4795   -2.3561615    62.429394    444.69285            0 
  998500       998500    159.97874    1.0693567     45405566 0.00058671278     506.4707     2890.325   -2.0233009    64.941854    443.55215            0 
  999000       999000    160.09788   0.92049353     45420649 0.00058651795    505.53535     2891.165   -1.4846346    61.053352    445.96663            0 
  999500       999500    159.52141   0.98982015     45424041 0.00058647415    513.89043      2890.93  -0.93855609    65.459051    449.36993            0 
 1000000      1000000    160.15081    0.7454657     45417599 0.00058655734    504.22955    2890.6479    -2.058668    68.678315    437.60991            0 
 1000002      1000002    160.32222   0.92322173     45417501 0.0005865586    501.33215    2890.3048   -2.0033001    63.293607    440.04184            0 
Loop time of 11043 on 1 procs for 1000000 steps with 5000 atoms

Performance: 7.824 ns/day, 3.068 hours/ns, 90.555 timesteps/s
100.0% CPU use with 1 MPI tasks x no OpenMP threads

MPI task timing breakdown:
Section |  min time  |  avg time  |  max time  |%varavg| %total
---------------------------------------------------------------
Pair    | 282.94     | 282.94     | 282.94     |   0.0 |  2.56
Bond    | 351.52     | 351.52     | 351.52     |   0.0 |  3.18
Kspace  | 1651       | 1651       | 1651       |   0.0 | 14.95
Neigh   | 58.088     | 58.088     | 58.088     |   0.0 |  0.53
Comm    | 9.5996     | 9.5996     | 9.5996     |   0.0 |  0.09
Output  | 2.7555     | 2.7555     | 2.7555     |   0.0 |  0.02
Modify  | 8676.3     | 8676.3     | 8676.3     |   0.0 | 78.57
Other   |            | 10.88      |            |       |  0.10

Nlocal:           5000 ave        5000 max        5000 min
Histogram: 1 0 0 0 0 0 0 0 0 0
Nghost:           1065 ave        1065 max        1065 min
Histogram: 1 0 0 0 0 0 0 0 0 0
Neighs:          12387 ave       12387 max       12387 min
Histogram: 1 0 0 0 0 0 0 0 0 0

Total # of neighbors = 12387
Ave neighs/atom = 2.4774
Ave special neighs/atom = 4
Neighbor list builds = 53169
Dangerous builds = 0

write_data   system_after_npt.data
System init for write_data ...
PPPM initialization ...
  using 12-bit tables for long-range coulomb (../kspace.cpp:340)
  G vector (1/distance) = 0.15836486
  grid = 64 64 64
  stencil order = 5
  estimated absolute RMS force accuracy = 0.0020591805
  estimated relative force accuracy = 6.2011609e-06
  using double precision KISS FFT
  3d grid and FFT values/proc = 328509 262144
  generated 1 of 1 mixed pair_coeff terms from geometric mixing rule
Total wall time: 3:04:03
