LAMMPS (29 Sep 2021)

# ------------------------------- Initialization Section --------------------

include      "system.in.init"        # specify the style of force field used
  atom_style full
  units real
  bond_style harmonic
  angle_style harmonic
  dihedral_style opls
  improper_style harmonic
  pair_style lj/cut/coul/long 11.0 11.0
  pair_modify mix geometric
  special_bonds lj/coul 0.0 0.0 0.5
  kspace_style pppm 0.0001

# ------------------------------- Atom Definition Section -------------------

read_data    "system.data"
Reading data file ...
  orthogonal box = (0.0000000 0.0000000 0.0000000) to (103.50000 103.50000 103.50000)
  2 by 2 by 2 MPI processor grid
  reading atoms ...
  5000 atoms
  scanning bonds ...
  4 = max bonds/atom
  scanning angles ...
  6 = max angles/atom
  reading bonds ...
  4000 bonds
  reading angles ...
  6000 angles
Finding 1-2 1-3 1-4 neighbors ...
  special bond factors lj:    0        0        0.5     
  special bond factors coul:  0        0        0.5     
     4 = max # of 1-2 neighbors
     3 = max # of 1-3 neighbors
     3 = max # of 1-4 neighbors
     4 = max # of special neighbors
  special bonds CPU = 0.001 seconds
  read_data CPU = 0.031 seconds

# ------------------------------- Settings Section --------------------------

include      "system.in.settings"    # load the force field parameters
  pair_coeff 1 1 0.066 3.5
  pair_coeff 2 2 0.03 2.5
  bond_coeff 1 340.0 1.09
  angle_coeff 1 33.0 107.8
  set type 1 charge -0.24
Setting atom values ...
  1000 settings made for charge
  set type 2 charge 0.06
Setting atom values ...
  4000 settings made for charge
include      "system.in.charges"     # load the charge of each atom
  set type 1 charge -0.24
Setting atom values ...
  1000 settings made for charge
  set type 2 charge 0.06
Setting atom values ...
  4000 settings made for charge

# ------------------------------- Run Section -------------------------------


# -- minimization protocol --

thermo          500
minimize	1.0e-4 1.0e-6 100000 400000
WARNING: Using 'neigh_modify every 1 delay 0 check yes' setting during minimization (../min.cpp:188)
PPPM initialization ...
  using 12-bit tables for long-range coulomb (../kspace.cpp:340)
  G vector (1/distance) = 0.13982374
  grid = 15 15 15
  stencil order = 5
  estimated absolute RMS force accuracy = 0.025711481
  estimated relative force accuracy = 7.7429363e-05
  using double precision KISS FFT
  3d grid and FFT values/proc = 2197 512
Neighbor list info ...
  update every 1 steps, delay 0 steps, check yes
  max neighbors/atom: 2000, page size: 100000
  master list distance cutoff = 13
  ghost atom cutoff = 13
  binsize = 6.5, bins = 16 16 16
  1 neighbor lists, perpetual/occasional/extra = 1 0 0
  (1) pair lj/cut/coul/long, perpetual
      attributes: half, newton on
      pair build: half/bin/newton
      stencil: half/bin/3d
      bin: standard
Per MPI rank memory allocation (min/avg/max) = 9.951 | 9.952 | 9.957 Mbytes
Step Temp E_pair E_mol TotEng Press 
       0            0    13.473059    169.81587    183.28893    62.917711 
       2            0     13.46648    168.45644    181.92292    1.7188027 
Loop time of 0.00572007 on 8 procs for 2 steps with 5000 atoms

94.1% CPU use with 8 MPI tasks x no OpenMP threads

Minimization stats:
  Stopping criterion = energy tolerance
  Energy initial, next-to-last, final = 
      183.288930482805   181.923003048985   181.922915101875
  Force two-norm initial, final = 43.104107 0.12623321
  Force max component initial, final = 0.68269501 0.0017082284
  Final line search alpha, max atom move = 1.0000000 0.0017082284
  Iterations, force evaluations = 2 4

MPI task timing breakdown:
Section |  min time  |  avg time  |  max time  |%varavg| %total
---------------------------------------------------------------
Pair    | 0.0018956  | 0.0019318  | 0.0019572  |   0.0 | 33.77
Bond    | 0.00038604 | 0.00039056 | 0.00039471 |   0.0 |  6.83
Kspace  | 0.0029227  | 0.0029613  | 0.0030003  |   0.0 | 51.77
Neigh   | 0          | 0          | 0          |   0.0 |  0.00
Comm    | 0.00025795 | 0.00027033 | 0.00028449 |   0.0 |  4.73
Output  | 0          | 0          | 0          |   0.0 |  0.00
Modify  | 0          | 0          | 0          |   0.0 |  0.00
Other   |            | 0.0001661  |            |       |  2.90

Nlocal:        625.000 ave         625 max         625 min
Histogram: 8 0 0 0 0 0 0 0 0 0
Nghost:        1935.00 ave        1935 max        1935 min
Histogram: 8 0 0 0 0 0 0 0 0 0
Neighs:        11250.0 ave       11625 max       10875 min
Histogram: 2 0 2 0 0 0 0 1 1 2

Total # of neighbors = 90000
Ave neighs/atom = 18.000000
Ave special neighs/atom = 4.0000000
Neighbor list builds = 0
Dangerous builds = 0

# Optional: write the coordinates after minimization
write_data  	system_after_min.data
System init for write_data ...
PPPM initialization ...
  using 12-bit tables for long-range coulomb (../kspace.cpp:340)
  G vector (1/distance) = 0.13982374
  grid = 15 15 15
  stencil order = 5
  estimated absolute RMS force accuracy = 0.025711481
  estimated relative force accuracy = 7.7429363e-05
  using double precision KISS FFT
  3d grid and FFT values/proc = 2197 512


# -- simulation protocol --


timestep        1.0
dump            1 all custom 2500 traj_npt.lammpstrj id mol type x y z ix iy iz
thermo_style    custom step time temp press vol density pe etotal epair ebond eangle edihed
fix             fxnpt all npt temp 100.0 100.0 100.0 iso 10.0 10.0 1000.0 drag 1.0


# ----------------------------- Customization -------------------------------
variable	d equal density
variable 	pe equal epair

fix extra all print 100 "${d} ${pe}" file out.txt screen no

run             1000000
PPPM initialization ...
  using 12-bit tables for long-range coulomb (../kspace.cpp:340)
  G vector (1/distance) = 0.13982374
  grid = 15 15 15
  stencil order = 5
  estimated absolute RMS force accuracy = 0.025711481
  estimated relative force accuracy = 7.7429363e-05
  using double precision KISS FFT
  3d grid and FFT values/proc = 2197 512
Per MPI rank memory allocation (min/avg/max) = 8.866 | 8.867 | 8.872 Mbytes
Step Time Temp Press Volume Density PotEng TotEng E_pair E_bond E_angle E_dihed 
       2            0            0    1.7188027    1108717.9  0.024027777    181.92292    181.92292     13.46648 1.4398946e-05    168.45642            0 
     500          498 0.00041714078    1.8550703      1073114  0.024824973    182.85069    182.85691    14.394011 1.2870225e-05    168.45667            0 
    1000          998 0.00073303101    2.0799727    1030438.7  0.025853092    184.05871    184.06963    15.602234 6.1296375e-06    168.45647            0 
    1500         1498 0.0021105345   -1.7209342     983891.3  0.027076188    157.55331    157.58476   -10.903268 9.9496918e-05    168.45648            0 
    2000         1998 0.00047583733   -3.5932054     936040.8  0.028460326    145.67572    145.68281   -22.780943 4.9843223e-05    168.45661            0 
    2500         2498 0.0027549464    -4.128231    890270.66  0.029923513    143.30831    143.34937   -25.148902 0.00029008475    168.45693            0 
    3000         2998 0.0069075245   -3.8436097    847969.73  0.031416246    144.30281    144.40574   -24.154401 0.00013675575    168.45708            0 
    3500         3498   0.01877485   -1.5633645    810527.35  0.032867522    155.86185    156.14161   -12.595696 0.0010098865    168.45653            0 
    4000         3998   0.05365879  -0.79576845    776117.52  0.034324732     158.0144    158.81397   -10.443061 0.00065568003     168.4568            0 
    4500         4498   0.15421752    -1.207204    744155.11  0.035799023     157.1466    159.44461    -11.31582 0.0022208857     168.4602            0 
    5000         4998   0.46108717   -1.7013931    713787.41  0.037322073    160.18899    167.05968   -8.2793092 0.0024228333    168.46588            0 
    5500         5498    1.3344658  -0.48187572    688748.94  0.038678863    173.23603    193.12099    4.7583704  0.007744687    168.46991            0 
    6000         5998    3.9503591  -0.63240217    666962.21  0.039942332    178.29524    237.15982    9.8153502   0.01370435    168.46619            0 
    6500         6498    11.373594    1.1264445     649249.9  0.041032006    182.80179     352.2805    14.301948   0.03194932    168.46789            0 
    7000         6998    29.899051     10.15424    635824.75  0.041898378    205.08179    650.60962    36.342141   0.18285535    168.55679            0 
    7500         7498    63.206152    9.3591812    626007.69  0.042555429    186.74035    1128.5796    17.015442   0.61803786    169.10687            0 
    8000         7998    93.351447    11.679926    614729.05  0.043336208    184.84747    1575.8839    12.897645    1.5083319    170.44149            0 
    8500         8498    100.16476    8.3214531    597849.61  0.044559745    166.58138    1659.1434   -4.7046611    1.6088452    169.67719            0 
    9000         8998    99.684153     5.468364    575674.13  0.046276225    161.96077    1647.3613   -10.148647      1.45196    170.65745            0 
    9500         9498    99.725292    2.6973173    548480.69  0.048570581    158.55158    1644.5651   -13.648804    1.6159232    170.58446            0 
   10000         9998    100.57096   -3.5397012    524308.34  0.050809846    142.24075    1640.8555   -28.944512    1.4953979    169.68986            0 
   10500        10498    102.58407   -26.798939    497586.53  0.053538479    26.281506    1554.8938   -146.25186    1.7184826    170.81488            0 
   11000        10998    100.10258   -3.7948346    514164.02  0.051812311    99.239145    1590.8746   -76.546008    1.9294634    173.85569            0 
   11500        11498    101.72966    25.501179     513710.5  0.051858052    20.621649    1536.5023   -161.22797    2.0644763    179.78515            0 
   12000        11998    99.485994    24.070687    540737.94  0.049266056    91.900344     1574.348    -92.18809    1.8551712    182.23326            0 
   12500        12498    99.358498    20.075972    567765.09  0.046920859    82.743324    1563.2912   -100.85095     1.681117    181.91316            0 
   13000        12998    100.18987    34.315677    599240.22  0.044456339    74.353842    1567.2901   -111.95596    1.7038749    184.60592            0 
   13500        13498    99.361766    50.077077    648258.06  0.041094785    72.552379     1553.149   -117.83943     1.561509     188.8303            0 
   14000        13998    99.486553    41.257148    697446.43  0.038196519    86.156304    1568.6123   -102.95829    1.6147544    187.49984            0 
   14500        14498    99.817648    35.736335    746773.09  0.035673522    95.180833    1582.5705   -95.398847    1.4697886    189.10989            0 
   15000        14998    99.639119    35.710301    795386.03  0.033493203    88.164674    1572.8941   -102.76429    1.5384833    189.39048            0 
   15500        15498    99.665468    34.853475    846336.61  0.031476868    82.240128    1567.3622   -109.63017     1.354746    190.51555            0 
   16000        15998    99.839475     32.96741    899549.65  0.029614848    80.770923    1568.4859   -112.96183    1.3030791    192.42968            0 
   16500        16498     99.83877    31.220393    954348.11   0.02791437    91.538329    1579.2428    -102.4413    1.2548735    192.72475            0 
   17000        16998    99.617238    30.804081    1010062.2  0.026374639    95.553927    1579.9573   -98.741817     1.369352    192.92639            0 
   17500        17498    99.738097     26.58632    1066321.8  0.024983103    96.898453    1583.1028   -97.425635    1.3831499    192.94094            0 
   18000        17998    99.611472     24.45771    1123335.7  0.023715107    99.899922    1584.2174   -94.697511    1.5169847    193.08045            0 
   18500        18498    99.755127    22.177795    1183587.7  0.022507859    106.63858    1593.0966   -89.067388    1.5154489    194.19051            0 
   19000        18998    99.556308    20.307886    1245608.2  0.021387163    115.16384    1598.6593   -81.003359    1.6094963     194.5577            0 
   19500        19498    99.788854    17.884081    1306942.4  0.020383473     114.7048    1601.6654   -82.555397    1.7087055     195.5515            0 
   20000        19998    99.711335    14.971495    1371257.4  0.019427444    122.60729    1608.4128   -74.865277    1.8232238    195.64934            0 
   20500        20498    99.619655    15.828513    1434103.6  0.018576081    133.43483    1617.8742   -65.673637     1.953169    197.15529            0 
   21000        20998    99.845073    14.289554    1498802.1  0.017774212    132.30543    1620.1038   -66.261785    1.9175103     196.6497            0 
   21500        21498    100.22816    12.169821    1566244.8  0.017008852    129.10415    1622.6109    -69.18551    1.9660174    196.32364            0 
   22000        21998    99.538524    15.462901    1634100.7  0.016302561    136.58735    1619.8178   -62.819259     1.872345    197.53426            0 
   22500        22498    99.997014    14.049476      1697936  0.015689653    140.37253     1630.435   -60.270796    1.8184408    198.82489            0 
   23000        22998    99.867859    15.440888    1763510.2   0.01510625    136.25648    1624.3944   -64.509997    1.8083957    198.95808            0 
   23500        23498    99.873237    15.009752      1828636   0.01456825    140.02711    1628.2451   -61.128788    1.7902717    199.36562            0 
   24000        23998    99.813469    14.740219    1890962.3  0.014088079    143.41412    1630.7416   -57.695193    1.7759225    199.33339            0 
   24500        24498      99.8841    15.087549    1947593.1  0.013678435    147.69756    1636.0775   -54.227398    1.8826162    200.04234            0 
   25000        24998    99.960394    12.907559    2007577.2   0.01326974    147.92941    1637.4462   -53.243057     2.021787    199.15068            0 
   25500        25498    99.681128    13.539852    2060977.9  0.012925915    154.63563     1639.991   -48.112624    2.0464322    200.70182            0 
   26000        25998    99.921232    11.278105    2114806.4   0.01259691    150.88146    1639.8147   -53.114219    2.0043451    201.99133            0 
   26500        26498    100.06253    10.033063    2160270.3  0.012331802    146.31685    1637.3556   -57.240062    2.2385548    201.31836            0 
   27000        26998    99.919825    9.4066502    2200650.5  0.012105523    148.28861    1637.2009   -54.934582    2.2036236    201.01957            0 
   27500        27498    99.899554    8.8828334      2242868  0.011877661    150.99016    1639.6004     -51.4223    2.2260186    200.18644            0 
   28000        27998     99.79941    9.6895754    2277769.9  0.011695661    154.53276    1641.6507   -50.233402    2.2231806    202.54298            0 
   28500        28498    100.08265    9.3446698    2310318.7  0.011530888    151.65045     1642.989   -53.036611    2.2282811    202.45878            0 
   29000        28998    100.18959     10.07266    2342703.2   0.01137149    149.06029    1641.9923   -55.009645    2.0642801    202.00565            0 
   29500        29498    99.863512    11.552865    2372049.6  0.011230805     153.6573    1641.7304    -50.73038    2.2011729    202.18651            0 
   30000        29998    99.990891    11.302875    2395117.5  0.011122638    156.31813    1646.2893   -48.075927    2.3645959    202.02946            0 
   30500        30498     99.94168    11.548361    2411047.1  0.011049152      160.263    1649.5009   -45.467969    2.3151363    203.41584            0 
   31000        30998    99.833293    11.576945    2427753.2   0.01097312    161.10859    1648.7314   -44.986601    2.2862401    203.80895            0 
   31500        31498    99.705897    11.189794    2445790.2  0.010892196    164.58391    1650.3084   -42.569056    2.4513326    204.70163            0 
   32000        31998     99.87361    10.967807    2465724.7  0.010804136    162.61685    1650.8404   -43.201526    2.4301971    203.38818            0 
   32500        32498     99.96202    10.009846      2492032  0.010690082    160.72459    1650.2656   -45.668553    2.3964693    203.99667            0 
   33000        32998    99.971086    9.8869043    2516746.9  0.010585103    156.98234    1646.6584   -49.403675    2.3798387    204.00618            0 
   33500        33498     99.95033    9.8705251    2548666.5  0.010452535    162.67705    1652.0439   -43.907003     2.543361    204.04069            0 
   34000        33998    99.988883    10.817683    2568517.8   0.01037175    164.26465    1654.2059   -42.746255    2.5632161    204.44769            0 
   34500        34498    99.969201    10.560401    2583762.4  0.010310556    165.63042    1655.2784   -40.726198    2.6265419    203.73008            0 
   35000        34998    100.14583       10.361    2595715.5  0.010263076    164.72159    1657.0016   -41.478507    2.7244415    203.47565            0 
   35500        35498    99.894847     11.12568      2608503  0.010212764    164.68722    1653.2273   -43.045106    2.5743747    205.15795            0 
   36000        35998    99.843342    10.269065    2629225.2  0.010132272    169.20529    1656.9779   -39.051979    2.6831836    205.57409            0 
   36500        36498     100.0638    9.0251723      2644797  0.010072617    167.28928    1658.3469   -40.778279    2.5810552     205.4865            0 
   37000        36998    99.998567    9.4643744    2652425.3  0.010043648    163.42757    1653.5132   -44.318895    2.7059566    205.04051            0 
   37500        37498    100.02859    9.4505297    2668183.8 0.0099843295     163.5978    1654.1308   -42.751464    2.7831943    203.56607            0 
   38000        37998    99.918925    10.003565      2684598 0.0099232833    168.37661    1657.2754   -39.092745    2.6387329    204.83062            0 
   38500        38498    99.854239    10.260024    2695026.7 0.0098848839    170.57712    1658.5121   -38.902805    2.6501294     206.8298            0 
   39000        38998    100.05154    10.632003    2689694.1 0.0099044817    165.69045    1656.5654   -42.514993    2.5607403     205.6447            0 
   39500        39498    100.07313    10.622312    2691440.4 0.0098980553    165.35137     1656.548   -43.759193    2.8562239    206.25434            0 
   40000        39998    100.12147     10.24992    2697102.6 0.0098772758    167.28402    1659.2011   -40.839617    2.5143779    205.60926            0 
   40500        40498    99.831613    12.094633      2698151 0.0098734378    171.07488    1658.6727   -38.768366    2.3777164    207.46553            0 
   41000        40998    99.925676    12.099904    2701008.8 0.0098629912    171.18182    1660.1813   -36.067672    2.6183603    204.63113            0 
   41500        41498    100.12861    11.244102    2711182.2 0.0098259816     170.1377    1662.1611   -38.734535    2.7480996    206.12413            0 
   42000        41998    99.780144    11.678036    2724762.7 0.0097770079    175.67216     1662.503   -35.613654    2.8389383    208.44688            0 
   42500        42498    99.923699    10.679406    2732686.5  0.009748658    174.44752    1663.4175   -36.090611    2.8809643    207.65717            0 
   43000        42998    100.03025    9.2485265    2743566.8 0.0097099974    171.13836     1661.696   -38.868539     2.701849    207.30505            0 
   43500        43498    100.02294    9.5483247    2756326.5 0.0096650473    168.96413    1659.4129   -40.290895    2.7646641    206.49036            0 
   44000        43998    99.976417    8.8230334    2778187.3 0.0095889957    175.64066    1665.3962   -34.499847    2.6809694    207.45953            0 
   44500        44498    100.02331    9.1938789    2788755.8 0.0095526565    174.84465    1665.2989   -35.419224    2.6573562    207.60652            0 
   45000        44998    100.00005    9.5569892    2795640.1 0.0095291329    172.16117    1662.2689   -38.471934    2.9820096    207.65109            0 
   45500        45498    99.951245    10.568485    2795726.5 0.0095288384    173.26544    1662.6459   -39.063532    3.0482626    209.28071            0 
   46000        45998    99.843114    10.751919    2803279.3 0.0095031651    173.63765    1661.4068   -37.615176    2.8077198    208.44511            0 
   46500        46498    100.21366    9.4094927    2823464.1 0.0094352273    174.59197    1667.8827    -35.49254    2.7340078     207.3505            0 
   47000        46998    99.967897    9.8374399    2835778.9 0.0093942535    174.73336    1664.3619   -36.949486    2.7197831    208.96306            0 
   47500        47498    100.04842    9.3263194    2852762.4 0.0093383263    173.17391    1664.0023   -38.310989    3.1255552    208.35934            0 
   48000        47998    99.990802    9.8050798    2868819.1   0.00928606    175.23834    1665.2082   -37.730783    3.0058308    209.96329            0 
   48500        48498    99.937878    10.575832    2877458.2 0.0092581799    176.92697    1666.1082   -35.545559    2.8215632    209.65097            0 
   49000        48998    100.12545     10.89963    2886897.6 0.0092279083    174.05919    1666.0355   -37.928807    2.7298057    209.25819            0 
   49500        49498    100.10423    10.961989    2907907.3 0.0091612364    177.41588    1669.0759   -33.702308    2.8143681    208.30382            0 
   50000        49998    99.873343    11.543345    2933041.5 0.0090827308    180.87679    1669.0964   -31.654639    2.8251772    209.70625            0 
   50500        50498    100.08634    10.256186      2943173 0.0090514645    179.61562    1671.0091   -32.312381    3.0441438    208.88386            0 
   51000        50998    99.866653    9.6710687    2939625.1  0.009062389    177.04763    1665.1676   -36.879497    3.0958006    210.83133            0 
   51500        51498    100.07402    7.9718771    2944011.3 0.0090488871    180.36834    1671.5783   -32.531324    2.9889983    209.91067            0 
   52000        51998    100.14429    8.0361188    2938221.6 0.0090667178    177.27283    1669.5299   -35.448354    3.2328739    209.48831            0 
   52500        52498    99.971349    7.9201779    2941098.3 0.0090578494    177.56937    1667.2494   -34.851733    3.1612281    209.25988            0 
   53000        52998    99.951546    8.6927119    2948566.7 0.0090349069    180.32448    1669.7094   -33.910296    3.1390294    211.09575            0 
   53500        53498    100.07971    9.9836015    2952849.3 0.0090218035    177.64662    1668.9413   -35.966019     3.044791    210.56784            0 
   54000        53998     100.2612    9.9179518    2956508.1 0.0090106386    175.38843    1669.3876   -37.099695    3.1212938    209.36683            0 
   54500        54498    99.875055    11.923294    2961970.1 0.0089940227    178.56088     1666.806   -36.015867    2.9935279    211.58322            0 
   55000        54998    100.11576    11.828481    2976926.4 0.0089488358    176.87385    1668.7057   -37.340907    2.9614799    211.25328            0 
   55500        55498    99.988258    11.845623    2991177.4 0.0089062006    175.96356    1665.8955   -38.200865    3.1504244      211.014            0 
   56000        55998    100.10321    11.774891    3002742.5 0.0088718984    177.79549    1669.4404    -35.17746    2.8101151    210.16284            0 
   56500        56498    99.868825    12.316594    3016644.2 0.0088310135    181.58828    1669.7406   -32.959533    3.0267328    211.52108            0 
   57000        56998    100.02799    11.280331    3024548.4 0.0088079352    179.36263    1669.8867   -35.748248     3.139733    211.97115            0 
   57500        57498    99.965763    10.187338    3016825.2 0.0088304836    177.98573    1667.5825   -36.627021     3.188187    211.42456            0 
   58000        57998     99.93925    9.3692789    3003999.5 0.0088681859    181.67906    1670.8808   -33.406055    3.3127358    211.77238            0 
   58500        58498    99.960452    8.2237045    2990707.5 0.0089075998    180.96719    1670.4848   -33.479805    3.4605031    210.98649            0 
   59000        58998    99.927307    8.1919234    2979906.8 0.0089398855    182.45668    1671.4804   -32.393515    3.2700073    211.58019            0 
   59500        59498    100.07834    8.5687844      2970479 0.0089682593    180.16757    1671.4419    -35.24812    3.3504165    212.06528            0 
   60000        59998    100.24638    8.7576374    2973488.3 0.0089591832     175.1002    1668.8784   -38.438207     3.418225    210.12018            0 
   60500        60498    99.807046     11.10172    2984585.9 0.0089258701     181.6766    1668.9083   -35.077903    3.0548791    213.69962            0 
   61000        60998     100.1024    10.942154      2992732 0.0089015742    176.62254    1668.2553   -38.950829    3.0973558    212.47601            0 
   61500        61498    99.765414    12.364282    2998212.5 0.0088853027    182.20888    1668.8202   -33.792965     3.431925    212.56992            0 
   62000        61998    100.06904    12.292387    3004998.2 0.0088652387    177.60977    1668.7455   -37.631881    3.1147965    212.12686            0 
   62500        62498    100.08947    10.951419    3018246.3  0.008826326    173.44725    1664.8874   -42.269391    3.2550458    212.46159            0 
   63000        62998    99.983024    10.487023    3029596.9 0.0087932575    179.47608    1669.3301   -37.745145    3.3142951    213.90693            0 
   63500        63498    99.966616    10.219945      3037537 0.0087702721      179.838    1669.4475   -35.268982    3.2061249    211.90086            0 
   64000        63998    100.12765    9.8281964    3041551.5 0.0087586962     180.2567    1672.2658   -36.235092    3.4244914     213.0673            0 
   64500        64498    99.837451    10.109405    3049421.6 0.0087360913    181.94099    1669.6258   -35.154228    3.2871947    213.80802            0 
   65000        64998    100.06767    10.072687      3063950 0.0086946672    182.30424    1673.4195   -34.441392    3.2644242    213.48121            0 
   65500        65498    99.957807    10.501187    3077751.5 0.0086556781    184.84251    1674.3207   -32.109218    3.4552399    213.49649            0 
   66000        65998    100.16672    9.5115676    3083249.1 0.0086402444    183.77092    1676.3621   -33.257052    3.7038031    213.32417            0 
   66500        66498    100.14747    9.4600454    3081243.6 0.0086458682    180.03129    1672.3357   -38.191734    3.4686049    214.75442            0 
   67000        66998    99.761912    8.7179698    3088312.9 0.0086260774    183.85756    1670.4167   -33.689494    3.7311492     213.8159            0 
   67500        67498    100.22337    7.5841667    3091557.7 0.0086170236    186.28764     1679.723   -31.196457    3.8365115    213.64758            0 
   68000        67998    100.12655    8.7631268    3076538.4  0.008659091    181.42178    1673.4144   -36.667082    3.7330712    214.35579            0 
   68500        68498    99.967946    9.1072153    3073718.5  0.008667035    181.37735    1671.0067   -36.293748    3.8925549    213.77855            0 
   69000        68998    99.939213    9.9902056    3078898.2 0.0086524544    184.61108    1673.8122   -33.579776    3.7616644    214.42919            0 
   69500        69498    100.06481    9.4804705    3079510.3 0.0086507344    186.37057    1677.4432   -31.388243     3.495369    214.26345            0 
   70000        69998    100.14992    9.1995832    3064537.1 0.0086930016    183.14784    1675.4888   -34.117556    3.6593056    213.60609            0 
   70500        70498    99.706137    9.8198704      3053206 0.0087252631    186.57884    1672.3069   -31.684684    3.4899741    214.77355            0 
   71000        70998    100.05613    8.6384713    3041973.5 0.0087574813    183.99642    1674.9398    -33.59648    3.8301403    213.76276            0 
   71500        71498    99.988223    9.7258267      3030767 0.0087898628     183.3244    1673.2559     -35.9643    3.9569808    215.33172            0 
   72000        71998    100.05542    9.8249853    3035248.5 0.0087768847    181.02867    1671.9614   -37.127467    3.8524279    214.30371            0 
   72500        72498    99.816449    10.704309    3046730.9 0.0087438065    186.97032    1674.3422   -32.222597     3.951027    215.24189            0 
   73000        72998    99.907442    10.649279      3054212 0.0087223894    183.93122     1672.659   -35.098088    3.5541512    215.47516            0 
   73500        73498    100.08642    10.413809      3066073  0.008688647    180.24887    1671.6436   -38.546232    3.6568644    215.13824            0 
   74000        73998     100.0622    10.577378    3085100.4 0.0086350597    180.76567    1671.7995   -37.640985    3.7598276    214.64683            0 
   74500        74498    100.02584    11.254953    3105731.5 0.0085776977    185.89428    1676.3863   -34.207395    3.7847157    216.31696            0 
   75000        74998    100.04885    11.306834    3129295.4 0.0085131068    185.17642    1676.0113   -33.624454    3.6509461    215.14993            0 
   75500        75498    100.00927    10.696185    3150744.5 0.0084551527    189.68019    1679.9253   -30.113585    4.3711602    215.42261            0 
   76000        75998     99.94033    10.079942    3162748.7 0.0084230613    187.08395    1676.3018   -32.720613    4.0573742    215.74719            0 
   76500        76498    100.24904    8.3301964    3167799.2 0.0084096321    182.39013     1676.208   -36.716259    3.9655929     215.1408            0 
   77000        76998      100.175    7.5620275    3162940.4 0.0084225506    185.95353    1678.6681   -34.310763    4.4233148    215.84098            0 
   77500        77498    99.964173    7.3967091    3156326.2 0.0084402005    187.78655    1677.3596    -33.74484     4.301363    217.23003            0 
   78000        77998    99.980068     8.666121    3152334.1  0.008450889    185.62127    1675.4312   -35.279374    3.7937708    217.10687            0 
   78500        78498    100.00637    9.2423719    3159462.6 0.0084318218    186.63184    1676.8336   -32.650105    4.4657692    214.81618            0 
   79000        78998    99.941083    10.822762      3164512 0.0084183677    190.87107    1680.1001   -30.165844    4.0694864    216.96743            0 
   79500        79498    100.16538    11.998752    3165894.9 0.0084146905     185.8849    1678.4561   -34.080873    3.5960559    216.36972            0 
   80000        79998    99.954789    12.677088    3164502.2 0.0084183937    186.40689    1675.8401   -35.447066     4.540727    217.31323            0 
   80500        80498    99.936796     12.33457    3164763.2 0.0084176995    184.97549    1674.1406   -36.625474    3.9822576     217.6187            0 
   81000        80998    99.892316    11.496044    3166901.1 0.0084120171    187.44758    1675.9499   -32.753975    3.8601839    216.34137            0 
   81500        81498    100.13352    9.8363295    3172912.9 0.0083960786     181.0765     1673.173   -40.014707    4.3503971    216.74081            0 
   82000        81998    99.753337     9.738894    3186946.5 0.0083591068    186.04172    1672.4731   -35.049598    4.3249853    216.76634            0 
   82500        82498    100.09038    8.5857044    3206337.1 0.0083085542    187.89631      1679.35   -32.943408    4.2444292    216.59529            0 
   83000        82998     100.0038    8.6883123    3214334.9 0.0082878812    186.30676    1676.4704   -35.973649    4.3256744    217.95474            0 
   83500        83498    100.09417    9.2528169    3214644.3 0.0082870837    185.18222    1676.6924   -37.114317    4.1052143    218.19133            0 
   84000        83998     99.95037    10.586371    3200422.9 0.0083239081    184.53801    1673.9054   -37.644959    4.3977148    217.78526            0 
   84500        84498    100.20572    10.396587      3188855 0.0083541039    179.96031    1673.1328   -40.550935    4.4529134    216.05833            0 
   85000        84998    99.959572     10.29037    3190042.9  0.008350993    185.87838    1675.3829   -35.564473     4.201381    217.24147            0 
   85500        85498    99.906499    11.129144    3185741.6 0.0083622683    187.41674    1676.1304   -35.075186    4.2108509    218.28107            0 
   86000        85998    99.892319    10.759425    3183318.1 0.0083686347    187.30299    1675.8054   -34.770186    4.4018794     217.6713            0 
   86500        86498    100.08186    11.798042    3174675.5  0.008391417     186.8363    1678.1631   -35.679852    4.0002634    218.51589            0 
   87000        86998    99.990697    10.890863    3178122.8 0.0083823149    191.38709    1681.3554   -30.520634    4.5064137    217.40131            0 
   87500        87498    100.02864    9.6255174    3182708.4 0.0083702377    189.30217    1679.8359   -32.960707    4.6757527    217.58713            0 
   88000        87998    99.980514    7.9735643    3186457.4 0.0083603898    190.35088    1680.1675   -32.755894     4.647419    218.45936            0 
   88500        88498     99.97579    7.1089443    3189704.9 0.0083518779     189.4333    1679.1795   -33.218238    4.8083686    217.84317            0 
   89000        88998    100.12055    6.2885501    3187577.5  0.008357452    189.83965    1681.7429   -32.701945    4.8716313    217.66996            0 
   89500        89498    100.04135    7.4426869    3174634.9 0.0083915242    188.09836    1678.8215   -34.785631    4.8543008    218.02969            0 
   90000        89998    100.08188    8.6225992    3164961.9 0.0084171711     189.5703    1680.8973   -33.069202     4.828406    217.81109            0 
   90500        90498    99.962627    9.4171064    3165240.9 0.0084164291    188.42892     1677.979   -34.568103    4.5462709    218.45075            0 
   91000        90998    99.754276    10.755344    3169440.6  0.008405277    196.46198    1682.9074   -27.490017    4.5577006    219.39429            0 
   91500        91498    100.17061    10.214936    3175656.1 0.0083888258    185.24414    1677.8934   -36.346383    4.3524289     217.2381            0 
   92000        91998    99.900064    11.332928    3184042.5 0.0083667306    187.11013    1675.7279   -36.064084    4.4460047    218.72821            0 
   92500        92498    99.439094    11.890386    3195110.6 0.0083377476    195.29539    1677.0442   -28.791801    4.6522971    219.43489            0 
   93000        92998    99.810929    12.256579    3193392.5 0.0083422334    191.25993    1678.5495   -33.484734    4.2066103    220.53806            0 
   93500        93498    100.04143    10.090297    3197384.2 0.0083318189    186.94599    1677.6702   -35.130755    4.4599198    217.61682            0 
   94000        93998    99.920272     9.877195    3199266.3 0.0083269174    190.98417    1679.9031   -32.211151    4.7606747    218.43465            0 
   94500        94498    99.973299    9.4831847      3203256 0.0083165459    188.87151    1678.5806   -34.991067    4.5807528    219.28182            0 
   95000        94998    100.05746     8.829919    3208277.7 0.0083035287    192.25541    1683.2186    -30.78346    4.6325423    218.40633            0 
   95500        95498    100.06765    9.1128442    3209308.7 0.0083008611    191.85081    1682.9659   -31.595644    4.5682292    218.87822            0 
   96000        95998    100.04787    9.2057732    3211026.6 0.0082964202    189.52442    1680.3447   -35.897349    4.5237067    220.89806            0 
   96500        96498    100.12454    9.9458096    3213479.1 0.0082900884    187.69176    1679.6544   -35.189022    4.7688912    218.11189            0 
   97000        96998    100.06566    11.050788    3207874.5 0.0083045724    191.19082    1682.2762    -32.01212    4.5961723    218.60676            0 
   97500        97498    100.11324    11.391207    3203985.8 0.0083146516    190.87777    1682.6722   -32.745902    4.4231904    219.20048            0 
   98000        97998    100.06966     12.07301    3193067.8 0.0083430818    190.74839    1681.8934   -33.781021    4.8879508    219.64146            0 
   98500        98498    100.05589    11.186251    3192921.8 0.0083434633    191.87595    1682.8158   -32.315443    4.6568656    219.53453            0 
   99000        98998    99.891773     10.60492    3198248.5 0.0083295672    193.75736    1682.2516   -29.974524    4.3672261    219.36466            0 
   99500        99498     99.78759    10.007521    3201304.7 0.0083216151    194.41429    1681.3561   -30.053759     4.856077    219.61197            0 
  100000        99998    99.880071     8.625958    3205553.6  0.008310585    194.17578    1682.4957    -31.22663    4.8416028    220.56081            0 
  100500       100498    99.993802    7.7799626    3204150.8 0.0083142236    192.47001    1682.4846   -32.271912    4.8993055    219.84261            0 
  101000       100998    99.903194    8.8841756    3193532.8 0.0083418671    193.53549    1682.1999   -32.038643    4.9999057    220.57423            0 
  101500       101498    100.00202    9.4278728    3183237.9 0.0083688455    190.44969    1680.5867   -33.796654    4.7709106    219.47544            0 
  102000       101998    100.11779    10.535634    3172964.7 0.0083959414    191.97309    1683.8352   -32.845838    4.8503674    219.96856            0 
  102500       102498    99.974477    10.947203    3162311.6 0.0084242256    195.08599    1684.8126   -28.978557    4.7486368    219.31591            0 
  103000       102998    99.951049    11.365364    3151387.6 0.0084534273    193.59985    1682.9774    -32.51744    4.4654581    221.65183            0 
  103500       103498    100.11351    10.582384    3142222.3 0.0084780845     189.4947    1681.2931   -35.369417    4.8899936    219.97412            0 
  104000       103998    99.994246    10.618166    3133518.6 0.0085016333    190.58115    1680.6024   -33.807203    4.7719894    219.61637            0 
  104500       104498    100.10465    10.008149    3133456.4 0.0085018021    189.05591    1680.7223   -35.647523    4.5158165    220.18761            0 
  105000       104998    99.876196    9.4176328    3143797.4 0.0084738368    189.82735    1678.0895    -35.62306    4.8364742    220.61394            0 
  105500       105498     99.78916    9.0250448    3160276.7 0.0084296498    191.54057    1678.5058   -35.176809    4.8181798     221.8992            0 
  106000       105998    100.07534    9.1097562    3163769.3  0.008420344    191.31717    1682.5468   -33.693974    4.8157988    220.19535            0 
  106500       106498    100.10649    9.1262659    3167004.1 0.0084117434    188.10674    1679.8005   -37.308293    4.6617572    220.75328            0 
  107000       106998    99.884066    10.511963      3172489 0.0083972005    192.77789    1681.1573   -34.061426    4.8760768    221.96324            0 
  107500       107498    100.00661    11.115856    3172441.5 0.0083973262    189.23454      1679.44   -35.839392    4.8217355    220.25219            0 
  108000       107998     100.1475    11.239043    3171800.3 0.0083990236    186.76442    1679.0692   -38.053082    5.0522267    219.76527            0 
  108500       108498    99.829612    11.559667    3181278.7 0.0083739995    195.59683    1683.1648   -30.567037    4.8681218    221.29575            0 
  109000       108998    100.13363    10.388583    3177944.5 0.0083827851    188.07922    1680.1774    -37.47115    4.8856901    220.66468            0 
  109500       109498     100.1153    10.344509    3169024.9 0.0084063794    187.48905    1679.3141   -37.983638    4.9649725    220.50772            0 
  110000       109998    100.05206    9.3462046    3169037.8 0.0084063453    189.62983    1680.5125   -36.168576    5.0299946    220.76841            0 
  110500       110498    100.01376    9.1590584    3174718.1 0.0083913045    190.86597    1681.1779   -34.852079    5.0971876    220.62086            0 
  111000       110998    99.960661    9.6950052    3189279.8 0.0083529911    192.27526     1681.796    -34.48943    5.2288312    221.53586            0 
  111500       111498    99.854953    9.4292837    3201687.3 0.0083206207    195.06062    1683.0062   -31.527248    5.2093178    221.37855            0 
  112000       111998    99.911249    9.9816872    3210549.8 0.0082976523    195.98688    1684.7713   -31.630653    4.9465539    222.67098            0 
  112500       112498    100.12957    10.401523    3211456.8 0.0082953088    189.72731    1681.7649   -36.380217    5.1934768    220.91405            0 
  113000       112998    100.17525    11.188802    3206765.5 0.0083074444    189.96851    1682.6868   -36.667616    5.2862977    221.34983            0 
  113500       113498    99.977486    11.068537    3205080.1 0.0083118128    194.27353     1684.045   -31.887131     5.260371    220.90029            0 
  114000       113998    100.14142    10.160499    3201437.6 0.0083212697    193.99508    1686.2093   -33.577276    5.3238402    222.24852            0 
  114500       114498    100.05747    9.3575254    3199361.3 0.0083266701     193.2519    1684.2152   -35.182415    5.2155501    223.21876            0 
  115000       114998    100.11674     7.805838    3191651.1  0.008346785     190.7105     1682.557   -35.527403     5.363071    220.87483            0 
  115500       115498    100.08057    8.5922562    3181454.3 0.0083735373    196.58805    1687.8955   -31.830196    5.3860955    223.03215            0 
  116000       115998    100.07658    9.4151692    3171739.3 0.0083991853    194.36748    1685.6156   -33.034458    5.3057056    222.09623            0 
  116500       116498    100.02755    10.992673      3165474 0.0084158093     194.7827    1685.3002   -31.452168    5.0588559    221.17602            0 
  117000       116998    100.11613    12.548725    3162302.5 0.0084242496    190.33128    1682.1686    -37.21011    5.1327525    222.40864            0 
  117500       117498    99.917963    12.712222    3169206.7 0.0084058973    192.41653     1681.301   -36.020396    5.3217203     223.1152            0 
  118000       117998    100.11237    12.077444      3174442 0.0083920343    189.72782    1681.5092   -37.491203    5.2859007    221.93312            0 
  118500       118498    100.03031    10.362671    3169188.7 0.0084059451    187.78332    1678.3419   -39.911106    5.4425851    222.25184            0 
  119000       118998    99.941487    8.9302611    3162345.8 0.0084241343    189.73794     1678.973   -38.788949    5.2090949    223.31779            0 
  119500       119498    100.01116    6.8371696    3165757.2 0.0084150565    190.04654    1680.3198   -37.300733    5.5649489    221.78232            0 
  120000       119998    100.00392    6.4968448    3176501.4 0.0083865935    193.26612    1683.4315   -34.858019    5.6467217    222.47742            0 
  120500       120498    99.972123    7.8036746    3177823.8 0.0083831035    190.21278    1679.9043   -38.256944    5.7755558    222.69417            0 
  121000       120998    100.04057    8.5609185    3180386.8 0.0083763477    190.59545     1681.307   -37.772286    5.8463145    222.52142            0 
  121500       121498    100.04926    8.8901232    3176959.5 0.0083853842    192.69788    1683.5388   -35.809622    5.5852264    222.92228            0 
  122000       121998    99.957851     11.05982    3174576.5 0.0083916787     193.5083    1682.9872    -36.98516    5.3066166    225.18685            0 
  122500       122498    99.802018    12.764734    3176374.2 0.0083869293    194.99579    1682.1526   -34.120934    5.5390842    223.57764            0 
  123000       122998    100.19156    12.903455    3183084.9 0.0083692476    194.80724    1687.7686   -32.454065    5.3650252    221.89628            0 
  123500       123498    100.21961    13.161392    3192337.6   0.00834499    193.84456    1687.2239   -34.190763     5.387704    222.64762            0 
  124000       123998     99.88692    12.956785    3215952.9 0.0082837116    199.93544    1688.3574   -29.248261    5.4786714    223.70503            0 
  124500       124498    99.895669    12.144434    3232639.9 0.0082409507    200.23591    1688.7882   -29.157501    5.5764039    223.81701            0 
  125000       124998    100.07146    9.9900138    3232550.8 0.0082411777    198.38067    1689.5524   -30.667282    5.4862033    223.56175            0 
  125500       125498    100.05068    8.8160061    3224283.3 0.0082623093    200.10237    1690.9646   -29.650271      5.89135     223.8613            0 
  126000       125998    100.00649    7.5660367    3211299.9 0.0082957142    200.68395    1690.8876   -30.478567    6.1324684    225.03005            0 
  126500       126498    99.817508    6.6871384    3199470.4 0.0083263862    196.67694    1684.0646   -34.945816    6.1230251    225.49973            0 
  127000       126998    99.793531    5.9142736    3192941.4 0.0083434121    199.04128    1686.0716   -32.252367    6.2206076    225.07304            0 
  127500       127498    99.976874     6.345618    3192504.8  0.008344553    198.79074    1688.5531   -31.656845    6.0356544    224.41193            0 
  128000       127998    99.839245    7.6552585    3192250.8 0.0083452171    200.55355    1688.2651   -30.781607    5.7866401    225.54851            0 
  128500       128498    100.00369    9.2957837    3185405.6 0.0083631503    199.51427    1689.6762   -32.241134    6.0476028     225.7078            0 
  129000       128998    100.06913    10.112789    3182236.5  0.008371479    196.25816    1687.3952   -34.358152    5.9506299    224.66568            0 
  129500       129498    99.892191    12.774666      3180545 0.0083759312    196.94283    1685.4433   -35.310739    5.7061642    226.54741            0 
  130000       129998    99.933843    13.163106    3195875.2  0.008335753    194.82009    1683.9412   -35.040358    5.6994232    224.16102            0 
  130500       130498    100.06097    12.892353    3208743.5 0.0083023232    192.83713    1683.8526   -37.021266    5.5783749    224.28002            0 
  131000       130998    99.975746     12.32255    3211766.1 0.0082945101    196.52952    1686.2751   -35.015815    5.8880524    225.65728            0 
  131500       131498      100.172    10.566683    3207674.4 0.0083050905    191.94629    1684.6162   -38.694114    5.7991146    224.84129            0 
  132000       131998    100.04417    10.950572      3204614 0.0083130217    192.03045    1682.7956   -38.691759    5.7307502    224.99146            0 
  132500       132498    100.09283    10.437236    3200061.6  0.008324848    194.71928    1686.2095   -36.894123    5.9697892    225.64362            0 
  133000       132998    100.01181    9.6938652    3187566.7 0.0083574802    194.82316    1685.1062   -37.457375     6.044959    226.23558            0 
  133500       133498    99.848733    9.3632514    3186008.1 0.0083615688    193.72897    1681.5819   -38.150677     6.469617    225.41003            0 
  134000       133998    99.927979    7.9340055    3197938.4 0.0083303748    192.25684    1681.2906   -39.611328    6.1925051    225.67567            0 
  134500       134498     100.1205    7.4424068    3198686.5 0.0083284266    194.37027    1686.2729   -37.298124    6.0826227    225.58577            0 
  135000       134998    100.03192    7.4570563    3194842.5 0.0083384474     199.9693    1690.5519   -32.177278    6.4156519    225.73093            0 
  135500       135498    99.869262    8.8836809    3181614.1 0.0083731166    201.04797    1689.2068   -31.855027    6.3747358    226.52826            0 
  136000       135998    99.851626    9.8526221    3177124.3 0.0083849492    197.94451    1685.8405   -33.966274    6.0770523    225.83373            0 
  136500       136498    100.13534    10.432133    3177207.3 0.0083847302    196.29877    1688.4224   -33.655914     5.865921    224.08876            0 
  137000       136998    99.873612    11.981985    3180080.9 0.0083771536    198.92319    1687.1468   -33.266644    6.4815997    225.70823            0 
  137500       137498    100.04057    12.073156    3185148.4 0.0083638256    199.76695    1690.4784   -32.925658    6.2000232    226.49258            0 
  138000       137998    99.971456    12.603358    3185655.5 0.0083624942    195.42274    1685.1043   -36.774382    5.7635935    226.43353            0 
  138500       138498    100.06555     11.12071    3192704.4 0.0083440315    200.88924     1691.973   -32.168661    6.5522315    226.50567            0 
  139000       138998    100.16061    10.415293    3194751.5 0.0083386848    199.40131    1691.9015   -31.075657    6.1970476    224.27992            0 
  139500       139498    100.12731     9.670933    3198689.2 0.0083284197    195.61563    1687.6196    -36.85556    6.4069244    226.06427            0 
  140000       139998    99.992417    8.6320107    3204290.1 0.0083138621    196.94496    1686.9389   -37.430445    6.3674537    228.00795            0 
  140500       140498    100.24223     7.513236    3195331.7 0.0083371708    197.49709    1691.2136   -35.334207    6.4752441    226.35605            0 
  141000       140998    99.880722    8.7301366    3187224.4 0.0083583778    201.72951    1690.0591   -31.643696    6.7388809    226.63432            0 
  141500       141498    99.949361    8.4005143    3193662.6  0.008341528    202.12683    1691.4792   -32.074444    7.1246772     227.0766            0 
  142000       141998    99.977583    8.0749444    3204465.2 0.0083134079    206.65617    1696.4291   -27.628951    6.7993909    227.48573            0 
  142500       142498    99.797981    8.6680231    3203568.1 0.0083157359     201.4788    1688.5754   -32.125877    6.7985024    226.80617            0 
  143000       142998    99.934399    8.8261842    3211528.7 0.0082951232    200.95676    1690.0862   -32.795336    7.1483568    226.60374            0 
  143500       143498    99.973497    9.7106709    3217055.7 0.0082808719    204.96537    1694.6774   -29.900973     6.910611    227.95573            0 
  144000       143998    100.04854    10.680711    3220553.7 0.0082718776    200.75923    1691.5895    -32.93634    6.5936767    227.10189            0 
  144500       144498    99.960588    11.104356    3234988.4 0.0082349681    204.94023    1694.4599   -29.286346    6.7675979    227.45898            0 
  145000       144998      100.009    11.093359    3240180.3 0.0082217727    201.44136    1691.6825   -32.306495    6.5611572     227.1867            0 
  145500       145498    99.923654    11.104583    3238512.1 0.0082260078    205.14471     1694.114   -29.264262    6.9839096    227.42506            0 
  146000       145998     100.0054    10.817678    3226957.4 0.0082554626    201.41088    1691.5983   -33.175117    6.5736768    228.01232            0 
  146500       146498    100.10885    9.2862283    3220746.6 0.0082713822    201.05551    1692.7844   -32.982802    7.0640437    226.97427            0 
  147000       146998    99.835802    9.5888646    3221700.2 0.0082689338    207.34575     1695.006   -29.115071    7.0561214     229.4047            0 
  147500       147498     99.75612    8.6193925    3208730.1 0.0083023579    202.92442    1689.3973    -32.96453    6.8455133    229.04344            0 
  148000       147998    100.16199    6.7484625      3194920 0.0083382451    204.84005    1697.3608   -28.497722    6.8889722     226.4488            0 
  148500       148498    100.06592    8.7562417      3172129 0.0083981535    202.99105    1694.0803   -31.124734    6.9089769    227.20681            0 
  149000       148998    99.998078    10.003218    3169667.1 0.0084046764    198.83959    1688.9179   -35.939356    6.8177553    227.96119            0 
  149500       149498    100.01908    11.045275    3179453.6 0.0083788063    200.71589    1691.1072   -34.083211     7.020745    227.77836            0 
  150000       149998    100.04204     12.34239    3183217.8 0.0083688981     203.5587    1694.2921   -30.226902    6.7682115    227.01739            0 
  150500       150498    99.922185     13.19541    3181592.8 0.0083731727    200.81795    1689.7654   -32.875655    6.8282755    226.86533            0 
  151000       150998    100.01993    13.583521    3189596.3 0.0083521624     202.1947    1692.5987   -34.099544    7.0976997    229.19655            0 
  151500       151498    99.941043     12.74585    3201277.1  0.008321687    202.87502    1692.1034     -31.9246    6.6287611    228.17086            0 
  152000       151998    100.06326    11.497538    3213543.1 0.0082899234    203.62593    1694.6755   -31.430776    6.9708758    228.08583            0 
  152500       152498    99.885651    10.038162    3215401.3 0.0082851324    203.21345    1691.6165   -31.471061    6.8186397    227.86587            0 
  153000       152998    100.13108    9.2700045      3202483 0.0083185534    201.17655    1693.2368   -33.991349    6.9891034    228.17879            0 
  153500       153498    99.930184    8.2418504    3196762.5 0.0083334391    201.74788    1690.8145   -34.968463     7.286761    229.42958            0 
  154000       153998    100.00929    8.5581382    3193606.4 0.0083416749    201.91925    1692.1646   -35.130061    7.0975739    229.95173            0 
  154500       154498    99.999351     8.297531      3193626 0.0083416234    202.45164    1692.5489   -34.231062    7.0057776    229.67693            0 
  155000       154998    100.02895    9.6167252    3184171.1 0.0083663927    206.27506    1696.8134   -30.217247    7.1638074     229.3285            0 
  155500       155498    100.10904    9.4637097    3179984.4 0.0083774077    203.37397    1695.1058   -31.835199    7.3244942    227.88468            0 
  156000       155998    100.08711    10.473689    3181762.6 0.0083727258    203.42137    1694.8264   -32.421072    7.2889179    228.55352            0 
  156500       156498     99.66973    10.523978    3199428.3 0.0083264957    207.16557    1692.3511   -31.334901    7.5784871    230.92198            0 
  157000       156998     99.81529    9.8497433    3217683.3 0.0082792566    205.04851    1692.4031    -33.82631    7.2670274     231.6078            0 
  157500       157498     100.0402    9.3260495    3233657.1 0.0082383583    203.17141    1693.8774   -33.659081    7.0970564    229.73344            0 
  158000       157998    100.21094     8.827019      3231443  0.008244003    201.18796    1694.4382   -34.267626    7.3217416    228.13384            0 
  158500       158498    100.10827    9.8506952    3221966.7 0.0082682498    199.37618    1691.0965   -36.498861    6.9291295    228.94591            0 
  159000       158998    100.07311    10.928929    3216570.6 0.0082821206    202.26705    1693.4634   -34.452759    7.5603263    229.15948            0 
  159500       159498    99.914401    12.015861    3211547.1 0.0082950755     201.5414    1690.3728   -37.315952    7.2571864    231.60017            0 
  160000       159998    99.952235    11.712603    3211558.4 0.0082950465    203.97206    1693.3673   -34.068196    7.2163728    230.82388            0 
  160500       160498    100.00474    11.601377    3207158.4 0.0083064267    200.06395    1690.2415   -37.439351    7.5201532    229.98315            0 
  161000       160998    99.876307    11.112931    3202247.8 0.0083191645     205.9097    1694.1735   -31.212881    7.3777703    229.74482            0 
  161500       161498    99.936287    9.4853729    3200523.2 0.0083236473    202.21657    1691.3741   -34.151273    7.3310634    229.03678            0 
  162000       161998    100.06739    7.5727803    3206779.5 0.0083074082    202.07069    1693.1818   -35.765682    7.7548167    230.08156            0 
  162500       162498    99.997856    7.7879558    3205323.6 0.0083111813    199.01166    1689.0867   -39.366467    7.5533886    230.82474            0 
  163000       162998    99.929115    8.2563022    3206487.9 0.0083081636    198.89161    1687.9423   -40.003591    7.6864674    231.20874            0 
  163500       163498    99.918033    9.5567638    3205326.4 0.0083111741    203.62045     1692.506   -35.014433    7.7384387    230.89645            0 
  164000       163998     100.0387    10.432738    3199072.7 0.0083274211    202.89685    1693.5805   -35.803899    7.5212725    231.17948            0 
  164500       164498    100.22535    11.534315    3202785.8 0.0083177669    201.17449    1694.6394   -35.783293    7.7774371    229.18034            0 
  165000       164998    99.939456    12.327278    3218984.4 0.0082759103    204.55306    1693.7578   -34.761909    7.7383294    231.57664            0 
  165500       165498    100.14513     11.78815    3229884.1 0.0082479819    205.07845     1697.348   -34.370007    7.5142538     231.9342            0 
  166000       165998    99.990765    11.742457    3233552.8 0.0082386242    204.37252    1694.3418   -35.307488    7.7960889    231.88392            0 
  166500       166498    100.15772    10.768832    3235129.6 0.0082346085    204.32959    1696.7867    -34.94739    7.8837428    231.39324            0 
  167000       166998    100.03134    10.232381    3228613.4 0.0082512282    205.33608      1695.91    -32.34734    7.8960614    229.78736            0 
  167500       167498    99.864139    9.9696783    3214415.2 0.0082876742    209.35582    1697.4383   -30.765086    8.3681441    231.75276            0 
  168000       167998    100.02662    8.7855904      3190074 0.0083509116    204.50822    1695.0118    -35.16621    7.9439625    231.73047            0 
  168500       168498    99.969549    7.7914463    3167951.5 0.0084092278    207.78804    1697.4412   -32.773499    7.7481362     232.8134            0 
  169000       168998    99.801439    8.2847808    3150868.5 0.0084548201    208.52479     1695.673   -32.269789    8.0700127    232.72457            0 
  169500       169498    99.947762     9.039294      3144429 0.0084721346    205.90763    1695.2362   -32.751027    8.6808636     229.9778            0 
  170000       169998    100.00973    9.2727286    3151946.2 0.0084519293    207.30344    1697.5554   -32.760856    7.8173093    232.24699            0 
  170500       170498    99.832242    9.6743968    3153908.1 0.0084466715    211.29544    1698.9026   -28.413103    7.9957292    231.71281            0 
  171000       170998    99.942934    9.5686796    3149351.7 0.0084588921    209.12102    1698.3776   -30.409543    8.6554958    230.87507            0 
  171500       171498    99.885208    9.7946999    3148323.4 0.0084616549    208.91665    1697.3131   -32.692176     7.932676    233.67615            0 
  172000       171998    99.987714    10.610679    3143678.6 0.0084741571    203.88455    1693.8084   -37.545712    7.7899444    233.64031            0 
  172500       172498    99.962223    11.854769    3150565.3 0.0084556335    210.30555    1699.8496   -30.019326    8.3283978    231.99648            0 
  173000       172998    100.06601    12.632033    3157509.9 0.0084370365    208.21237     1699.303   -32.029079    8.7534028    231.48805            0 
  173500       173498    100.30293    11.910478    3156060.1 0.0084409121    201.27784    1695.8987   -37.659379    8.0222796    230.91494            0 
  174000       173998    99.670539    11.466621      3158129 0.0084353823     209.2935    1694.4911    -32.24104    8.2634008    233.27114            0 
  174500       174498    99.885736    9.6191376    3160619.6 0.0084287354    207.11408    1695.5184   -34.901211    8.7872121    233.22808            0 
  175000       174998    100.02536    8.6202179    3171992.4 0.0083985149    204.93313     1695.418   -36.323841    8.2684386    232.98853            0 
  175500       175498    100.00087    8.6487602    3181796.7  0.008372636    205.38792    1695.5079    -35.90701    8.1703559    233.12457            0 
  176000       175998    100.00408     9.555231    3179004.9 0.0083799888    204.42207    1694.5897   -36.612874    8.7120722    232.32287            0 
  176500       176498    100.13277    10.266108    3170442.9 0.0084026196    197.74217    1689.8275   -43.179546    8.6582942    232.26342            0 
  177000       176998    100.05109    10.328185      3168732 0.0084071564    204.33034    1695.1985   -37.302727    8.3859094    233.24716            0 
  177500       177498    100.00118    10.002166    3166381.7  0.008413397    205.63848     1695.763   -35.274485    8.9910907    231.92187            0 
  178000       177998     100.2362     9.249418    3166816.9 0.0084122408     200.9273    1694.5539   -40.384999    8.6238626    232.68843            0 
  178500       178498    99.978786    9.8385978    3162774.2 0.0084229932    203.71495    1693.5058   -37.283831    8.3113117    232.68747            0 
  179000       178998    100.02579    10.781229    3161195.5 0.0084271998    208.76645    1699.2576   -32.593545    8.4983301    232.86167            0 
  179500       179498    100.04289    12.236092    3154997.2 0.0084437558    210.69771    1701.4438   -30.712002    8.6119589    232.79776            0 
  180000       179998    99.978726    12.945817    3144931.1 0.0084707821    213.42084    1703.2108   -28.365605    8.3512661    233.43517            0 
  180500       180498    100.02584    13.504051    3125739.6 0.0085227911    209.79046    1700.2825   -31.796885    8.6188144    232.96853            0 
  181000       180998    99.867216    12.382029    3117020.3  0.008546632     209.2283    1697.3566   -33.987558    9.1657508    234.05011            0 
  181500       181498    99.938976    10.346101    3111643.5 0.0085614005     209.7459    1698.9435    -31.14763     8.331455    232.56208            0 
  182000       181998    100.21352    9.3088869    3117330.8 0.0085457808    203.99437     1697.283   -36.116569    8.5586486    231.55229            0 
  182500       182498    99.955303    8.7348493    3126446.8 0.0085208632    206.13438    1695.5753   -35.227378    9.0113332    232.35042            0 
  183000       182998    99.860768    8.8854088    3129908.1 0.0085114403    208.73249    1696.7647   -34.548193    8.7206847       234.56            0 
  183500       183498    99.869981    8.9474633    3127031.8 0.0085192691     208.8206    1696.9901   -34.879349    9.0222968    234.67765            0 
  184000       183998    99.906235    9.7098406    3128469.5 0.0085153543    205.72337    1694.4331   -36.373336    9.3432714    232.75344            0 
  184500       184498    100.02631    9.7340981    3139244.5 0.0084861266    208.06331    1698.5623   -33.584064    9.1210027    232.52637            0 
  185000       184998    99.980558    10.505452    3145778.3 0.0084685009    209.23895    1699.0562   -33.853307    8.5199727    234.57229            0 
  185500       185498    99.840455    10.074529      3155096 0.0084434915     208.6745     1696.404    -35.75993    9.0924856    235.34194            0 
  186000       185998     99.99514    10.455359    3159116.5 0.0084327455    209.95827    1699.9928   -33.349227    8.6525214    234.65497            0 
  186500       186498    100.08818    10.222465    3160134.2 0.0084300298    205.90946    1697.3304   -37.334823    8.4616165    234.78266            0 
  187000       186998    99.949721    10.536124    3162997.9 0.0084223975    208.81318    1698.1709   -35.030315    9.3586419    234.48486            0 
  187500       187498     100.0815    10.405864    3159777.2 0.0084309823    204.16946    1695.4909   -39.871946    8.7722063     235.2692            0 
  188000       187998    100.14858    10.065615    3157151.9 0.0084379931    205.55014    1697.8711   -37.405713    8.6981253    234.25773            0 
  188500       188498    100.00246    10.659996      3151446 0.0084532707    208.56309    1698.7067   -36.147762    9.3557876    235.35506            0 
  189000       188998    100.19501    9.0634716    3139734.7 0.0084848017       207.52    1700.5328   -36.068823    9.8396083    233.74921            0 
  189500       189498    100.03896     9.306346    3123000.8 0.0085302655    203.41809    1694.1057   -40.905981    9.1999378    235.12413            0 
  190000       189998     100.0717    7.0672824    3121990.5  0.008533026    206.36047    1697.5358   -38.265109    9.3595773      235.266            0 
  190500       190498    100.12941    6.7163791    3116883.5 0.0085470073    205.91306    1697.9483   -37.591208     9.381162    234.12311            0 
  191000       190998    99.924291    7.8142218    3108213.4 0.0085708485     210.7148    1699.6936   -33.172606    9.4479163    234.43949            0 
  191500       191498    100.09795    8.1289849    3097326.1 0.0086009754     206.5321    1698.0986   -37.112623    9.5230584    234.12167            0 
  192000       191998    100.06776    8.8776568    3094462.2 0.0086089357    204.41954    1695.5362   -39.215532    9.0842805    234.55079            0 
  192500       192498    99.879516     8.662118    3095628.8 0.0086056914    208.78565    1697.0973   -36.248716    9.1822151    235.85216            0 
  193000       192998    100.10693    10.036919    3083870.4 0.0086385036    207.80489    1699.5051   -36.519061    9.3040815    235.01987            0 
  193500       193498    100.05504    11.372945    3075418.6 0.0086622438    205.28567    1696.2127   -38.145042    9.4101979    234.02051            0 
  194000       193998    99.823785    12.445886    3082548.5 0.0086422083    209.81392    1697.2951   -34.054037    8.9979307    234.87003            0 
  194500       194498     99.96861    11.374891    3093926.1 0.0086104272    212.12016    1701.7594   -32.541504    9.3145926    235.34707            0 
  195000       194998     99.89847    11.603985    3094831.6  0.008607908    209.75833    1698.3524   -35.491099    9.6532564    235.59618            0 
  195500       195498    99.875055    10.838945    3100638.5 0.0085917871    210.83125    1699.0764   -33.811277    9.5580102    235.08452            0 
  196000       195998    100.13989    10.139753    3109109.5 0.0085683782    208.37258    1700.5641    -36.92878    9.0168458    236.28451            0 
  196500       196498    99.897802    11.369559    3119847.1 0.0085388882    212.19117    1700.7753   -34.427632     9.484825    237.13398            0 
  197000       196998    100.01659    10.227961    3128617.3 0.0085149518    211.80174    1702.1559   -31.746568    9.5929408    233.95537            0 
  197500       197498    100.04676    9.8681493    3134688.1 0.0084984613    212.02913    1702.8329   -33.083001     9.524454    235.58768            0 
  198000       197998    100.09558    9.5177516    3146005.5 0.0084678892     216.8974    1708.4286   -30.074525    9.8597489    237.11217            0 
  198500       198498    99.896044    8.1426912    3155216.4 0.0084431693    217.96079    1706.5187   -29.785144    9.8317835    237.91415            0 
  199000       198998    100.02805     6.911493      3152030 0.0084517044    215.36541    1705.8904   -31.320548    10.215012    236.47094            0 
  199500       199498    100.15312    6.0278624    3142431.4 0.0084775202    211.76625    1704.1549   -34.188304    9.7811385    236.17342            0 
  200000       199998    99.959833    6.2711199    3133874.8 0.0085006669    213.63072    1703.1391   -33.581582    10.686493    236.52581            0 
  200500       200498    100.01222    7.2857588    3124616.7 0.0085258541    209.63812    1699.9271   -37.996064    9.9796168    237.65457            0 
  201000       200998    100.01182    8.1223571    3115396.3 0.0085510873    213.62838    1703.9114   -32.484878    9.5111584     236.6021            0 
  201500       201498    100.16141    9.9202984    3105921.3 0.0085771734    207.55536    1700.0675   -38.326406    9.8921539    235.98961            0 
  202000       201998    100.04097    11.803245    3110726.1 0.0085639252    210.80849     1701.526   -34.833407    9.8484479    235.79345            0 
  202500       202498    99.984308    14.570074    3111552.8   0.00856165    211.50684      1701.38   -34.855749    9.2546684    237.10793            0 
  203000       202998    99.940913    13.885078    3116466.1  0.008548152    212.30915    1701.5356   -35.138443    9.7750215    237.67257            0 
  203500       203498    100.08651    14.253611    3113807.8 0.0085554498    212.71575    1704.1118   -34.515048    9.7866699    237.44413            0 
  204000       203998    100.06288    13.852706    3108971.9 0.0085687574    209.36039    1700.4044   -36.582049    9.3191031    236.62334            0 
  204500       204498    100.15842    12.179936      3101777 0.0085886334     210.2813    1702.7489   -35.092962    9.8787774    235.49549            0 
  205000       204998    99.710561    10.511812    3099949.9 0.0085936957    218.66659    1704.4606   -28.755288    10.331574    237.09031            0 
  205500       205498    99.900019    8.6601361    3103571.4 0.0085836679    211.80014    1700.4173     -37.1816    9.9089586    239.07278            0 
  206000       205998    99.715507    7.0782266    3110906.8  0.008563428    209.58056    1695.4483   -38.958615    9.9441159    238.59506            0 
  206500       206498    99.967667    6.2379225    3119093.4 0.0085409516    210.73762    1700.3628   -37.102567    10.392987     237.4472            0 
  207000       206998    99.678407    6.1060482    3123958.9 0.0085276493    213.40011     1698.715   -34.998995    10.723049    237.67605            0 
  207500       207498    99.949684    6.5005449    3120696.2 0.0085365651     210.1478     1699.505   -36.304756    10.331484    236.12107            0 
  208000       207998    99.885642    8.5680211    3116467.8 0.0085481472     209.1586    1697.5615   -40.365061    10.190904    239.33276            0 
  208500       208498    100.08796     8.988085    3120749.2 0.0085364199    211.48569    1702.9034   -36.809432    10.126461    238.16866            0 
  209000       208998    100.00886    10.094305      3114960  0.008552285    207.74756    1697.9865   -38.964182    10.299135    236.41261            0 
  209500       209498    100.00048     11.37978    3106395.4 0.0085758646    207.67942    1697.7935   -39.514392    10.153195    237.04062            0 
  210000       209998    100.07225    10.702582      3109156 0.0085682501    214.38836    1705.5718   -32.247025    9.3177409    237.31764            0 
  210500       210498    100.11132     11.94822    3111950.6 0.0085605556    213.79605    1705.5619   -34.281013    9.8549406    238.22213            0 
  211000       210998    99.823974    13.263406    3124174.8 0.0085270599    214.18996    1701.6739   -35.182294     10.61824    238.75401            0 
  211500       211498    99.825626    12.591267    3148453.3 0.0084613058    214.62047    1702.1291   -34.742077    10.206526    239.15602            0 
  212000       211998    99.840195    11.622728    3160202.2 0.0084298484    220.93341    1708.6591   -27.598467    10.295633    238.23624            0 
  212500       212498      99.9287    10.774266    3159552.4 0.0084315821    220.14975    1709.1942   -29.245993    10.677739      238.718            0 
  213000       212998    100.14992    9.2075531    3160107.9    0.0084301    214.42341    1706.7643   -34.474705    10.162828    238.73529            0 
  213500       213498    100.01407    7.7050759    3163291.5 0.0084216159    217.55427    1707.8708   -31.036948    10.652803    237.93841            0 
  214000       213998    100.04338    9.1810271    3161861.7 0.0084254242    216.52354    1707.2769   -32.097888      10.4963    238.12513            0 
  214500       214498    100.07383    8.2490389      3164166 0.0084192884    217.69602    1708.9031   -32.272395     10.35498    239.61343            0 
  215000       214998    100.18462    9.4680942    3140821.7 0.0084818652    213.69634    1706.5544    -36.58614    10.911467    239.37101            0 
  215500       215498    100.10211    8.5620738    3123102.2 0.0085299884    213.02646     1704.655   -36.908208    10.770072     239.1646            0 
  216000       215998    99.859303    9.2870221    3112209.5 0.0085598433    214.05819    1702.0686   -36.276937    10.359086    239.97604            0 
  216500       216498    100.04882     8.391236    3106883.6 0.0085745169    214.61163     1705.446   -34.217628    10.418841    238.41042            0 
  217000       216998    100.17966    9.6053804    3096688.5 0.0086027464    213.65021    1706.4344   -36.294025    11.018636     238.9256            0 
  217500       217498    100.07688    11.148254    3094369.1 0.0086091947     208.4479    1699.7004   -41.008579    10.580604    238.87587            0 
  218000       217998    99.923532    12.688033    3096395.2 0.0086035613    213.62885    1702.5963   -36.011618     10.29324    239.34722            0 
  218500       218498    100.00211    11.938908    3090990.4 0.0086186053    214.99691    1705.1353   -34.227911    10.832006    238.39281            0 
  219000       218998    99.864924    11.667558    3086220.7 0.0086319252    218.58234    1706.6765   -32.253452    10.875926    239.95986            0 
  219500       219498    99.806556     9.700194    3086448.5  0.008631288    215.98402    1703.2084    -35.64674    10.839932    240.79083            0 
  220000       219998    100.09584    7.2049698      3090821 0.0086190775    211.18691     1702.722   -39.149173    10.783498    239.55259            0 
  220500       220498    100.09306    6.2580644    3097935.2 0.0085992844    213.94671    1705.4404   -35.321312     10.88064    238.38738            0 
  221000       220998    99.986063    8.0304952    3107120.3 0.0085738636    216.53847    1706.4377   -35.136898    11.376468     240.2989            0 
  221500       221498    100.15286    8.7973629    3114753.4 0.0085528524    212.37021    1704.7549   -37.941847    11.160825    239.15123            0 
  222000       221998    100.08588    9.3958021    3122475.7    0.0085317    210.55443     1701.941   -39.441966    10.883629    239.11277            0 
  222500       222498    99.842848    11.167542      3127864 0.0085170026    219.54489    1707.3101   -33.360727    10.637723    242.26789            0 
  223000       222998    99.872075    11.868156    3126194.4 0.0085215513    219.32386    1707.5246   -34.128604    11.004081    242.44838            0 
  223500       223498    100.25559     11.84254    3115129.4   0.00855182    212.36705    1706.2826   -35.874961    10.559066    237.68294            0 
  224000       223998    100.01943    12.771264    3116542.4 0.0085479426    217.79847     1708.195   -31.379902    10.532779    238.64559            0 
  224500       224498    100.02798    12.091644    3123412.4 0.0085291413    217.38232    1707.9062   -33.933222    10.794644     240.5209            0 
  225000       224998    99.726646    10.855849    3126839.5 0.0085197933     223.7844    1709.8181   -29.439459    11.105994    242.11787            0 
  225500       225498     99.92187    10.064999    3129167.8 0.0085134539    221.97616    1710.9189   -29.660534     10.92613    240.71056            0 
  226000       225998      99.8956    9.8944672    3129154.4 0.0085134904    221.37396    1709.9252   -31.679088     11.09251    241.96054            0 
  226500       226498     100.0726    9.2474255    3129773.8 0.0085118054    218.59703    1709.7858   -33.059039    11.260019    240.39605            0 
  227000       226998    100.06957    9.5342338    3132996.9  0.008503049    215.38472    1706.5283    -35.18134     11.04347    239.52259            0 
  227500       227498    99.687939    10.609045    3148106.2 0.0084622387    221.12142    1706.5783   -33.175744    11.363363     242.9338            0 
  228000       227998    99.903716    8.8834277    3161897.9 0.0084253276    221.60532    1710.2775   -31.336487    11.137249    241.80456            0 
  228500       228498     100.0212    8.5555168    3166726.6 0.0084124805    219.61371    1710.0365   -32.824243    11.170092    241.26786            0 
  229000       228998    100.02053    8.7946621    3161280.2 0.0084269739    222.48876    1712.9015   -30.128192    11.882422    240.73453            0 
  229500       229498    99.987325    10.071063    3154756.6 0.0084443997    222.64913    1712.5672   -30.238278     10.89489    241.99252            0 
  230000       229998    99.773589    11.188339    3157804.9 0.0084362482     225.2686    1712.0018   -27.628951     11.41243    241.48512            0 
  230500       230498    100.09583    11.169825    3169368.2 0.0084054689     220.3888    1711.9237   -32.327123    12.107337    240.60858            0 
  231000       230998    99.888021    11.925282    3173120.6  0.008395529    220.87382    1709.3122   -33.428384    11.518109    242.78409            0 
  231500       231498    100.07527     12.32016    3168406.9 0.0084080191     223.8772    1715.1057   -29.076216    10.525178    242.42824            0 
  232000       231998    100.00474    12.334904    3167426.4 0.0084106219    218.59521    1708.7728   -34.068407    11.102779    241.56084            0 
  232500       232498    100.00983    11.381742    3177077.3 0.0083850733    218.57661    1708.8301   -34.338941    11.487776    241.42778            0 
  233000       232998    100.12533    10.016826    3179459.9 0.0083787897    218.39053     1710.365    -33.48723    11.310377    240.56738            0 
  233500       233498    99.820444    10.391879    3173262.3 0.0083951542    224.69255    1712.1239   -29.734976    11.332307    243.09522            0 
  234000       233998    100.04117    9.8655381    3163947.7 0.0084198692    221.81586    1712.5362   -31.600661    11.870019     241.5465            0 
  234500       234498    99.735152    10.520887    3169170.8 0.0084059926    221.37936    1707.5398   -31.716674    11.672097    241.42393            0 
  235000       234998    99.824695    10.991132    3194682.5 0.0083388649    219.50732     1707.002   -33.316533    10.958638    241.86522            0 
  235500       235498    100.22781    10.048328    3208008.6 0.0083042252    214.71521    1708.2167    -38.87634    11.816287    241.77526            0 
  236000       235998    99.829037    10.385836    3209514.3 0.0083003293    216.37524    1703.9347   -38.360327    11.785918    242.94965            0 
  236500       236498    99.962297    9.9590484    3209747.5 0.0082997264    220.57052    1710.1157    -32.46894    11.174545    241.86491            0 
  237000       236998    99.946702    9.2273525    3198889.9 0.0083278971    221.90658    1711.2193   -32.271633    11.891936    242.28628            0 
  237500       237498    100.09742    8.6108842    3199188.2 0.0083271206    217.66174    1709.2203   -36.496769    11.579272    242.57924            0 
  238000       237998    99.944106     7.571273    3208119.7 0.0083039377    222.56313    1711.8372   -31.427256     12.12555    241.86484            0 
  238500       238498     100.0365    8.8918403    3209824.8 0.0082995265    219.89808    1710.5488   -34.421618    11.925507    242.39419            0 
  239000       238998    99.934075    9.9066315      3208270 0.0083035486    218.67936     1707.804   -35.519664    11.246712    242.95232            0 
  239500       239498    100.01994    11.214131    3212724.2 0.0082920363    217.90686     1708.311    -36.27699    11.753437    242.43042            0 
  240000       239998    100.09297    12.112232    3223574.3 0.0082641265    218.21307    1709.7053   -35.789461    12.261603    241.74093            0 
  240500       240498    99.860881    12.503475    3237061.9 0.0082296931    220.82277    1708.8567   -34.138057    11.325824    243.63501            0 
  241000       240998    99.940788    11.759263    3245029.8 0.0082094858    223.69421    1712.9188     -33.3605    12.009881    245.04483            0 
  241500       241498     100.1873    10.636547    3252000.3  0.008191889    221.16315    1714.0611    -33.77184    12.023981    242.91101            0 
  242000       241998    99.930841    10.105289    3259528.8 0.0081729683     221.0784    1710.1548   -34.120677    11.499616    243.69946            0 
  242500       242498    100.06424     9.051449      3271561 0.0081429098    223.12372    1714.1879   -32.018418    12.213556    242.92858            0 
  243000       242998    99.905861    9.8346212    3268657.8 0.0081501422    223.30931    1712.0135   -32.878835    12.108034    244.08012            0 
  243500       243498    100.02596      10.4468    3258085.2 0.0081765897    219.85031     1710.344   -36.287237    11.805475    244.33208            0 
  244000       243998    100.14783    10.219001      3247283 0.0082037895    220.46904    1712.7788   -34.412617    12.585929    242.29573            0 
  244500       244498    99.963195     9.616896    3246395.5 0.0082060323     221.6412    1711.1997   -32.452554    11.658158     242.4356            0 
  245000       244998    100.03633    9.4543205    3247066.2 0.0082043371    222.38176    1713.0301   -33.431002    12.113131    243.69963            0 
  245500       245498    99.721088     9.075102    3246114.4 0.0082067428    225.37891    1711.3298    -31.87166    12.248838    245.00173            0 
  246000       245998    100.09018    10.152367    3240043.7 0.0082221194    220.66805    1712.1187   -34.724233    11.782144    243.61014            0 
  246500       246498    100.13785    10.413054    3246695.7 0.0082052733     224.3523    1716.5133   -30.233376    12.082648    242.50303            0 
  247000       246998    99.984668    11.917593    3240507.6 0.0082209422    224.83915    1714.7176   -32.272497    12.395307    244.71634            0 
  247500       247498    99.990099    12.792721    3232200.3 0.0082420716    219.33012    1709.2895   -36.372049    12.754685    242.94748            0 
  248000       247998      100.181    10.885388    3236351.2 0.0082315004    221.46377    1714.2678   -34.869833    12.325277    244.00832            0 
  248500       248498    100.02383    8.5626519    3228346.5 0.0082519102    221.55562    1712.0177   -35.081281    12.094752    244.54215            0 
  249000       248998    100.12606    6.9264576    3217161.3 0.0082805999    219.03816    1711.0235   -38.862134    12.338187    245.56211            0 
  249500       249498    99.931913    5.2543707    3207515.8 0.0083055011    221.35552    1710.4479   -34.916525    12.586088    243.68596            0 
  250000       249998    100.04495    6.0566855    3187278.5 0.0083582359    220.06402    1710.8407   -35.955051    12.320106    243.69897            0 
  250500       250498    99.892095    9.3105022    3168482.6 0.0084078184    218.98286    1707.4819   -38.122885     12.11842    244.98733            0 
  251000       250998    100.09786    10.455582    3157477.2 0.0084371238    220.00084     1711.566   -35.632026    12.069927    243.56294            0 
  251500       251498    100.22157    11.637275    3149100.9 0.0084595656    222.54797    1715.9565   -31.826731      12.4738     241.9009            0 
  252000       251998    99.941251    12.599468    3153350.1 0.0084481661    222.72033    1711.9519   -33.503914    12.330103    243.89414            0 
  252500       252498    99.791843    11.823426    3165045.2 0.0084169496    223.47079     1710.476   -34.979999    12.404024    246.04676            0 
  253000       252998    99.990114    10.286944      3184296 0.0083660647     222.7306    1712.6902   -34.766245    12.899038     244.5978            0 
  253500       253498    100.23105    10.098257    3184630.4 0.0083651861    217.93218     1711.482   -37.832503    12.735613    243.02907            0 
  254000       253998    100.04891      8.69031    3179857.9 0.0083777411    223.07668    1713.9124    -33.66228    12.611697    244.12726            0 
  254500       254498    99.981427    9.4510792    3172739.1 0.0083965384     226.4176    1716.2478   -31.560408    12.949893    245.02811            0 
  255000       254998    99.726259     9.696729    3171969.6 0.0083985755    225.95077    1711.9787   -32.812071    12.468526    246.29431            0 
  255500       255498    99.911084    8.5683189    3174516.5 0.0083918373    225.36184    1714.1438   -33.314925    12.733473    245.94329            0 
  256000       255998    100.05631    9.5870642    3170514.9 0.0084024289    220.10299     1711.049   -37.394047    12.638592    244.85844            0 
  256500       256498    100.03031    10.732393    3162447.1 0.0084238645    221.55043     1712.109   -36.625552    12.524399    245.65158            0 
  257000       256998    100.13643    11.666396    3148420.8  0.008461393    221.05708     1713.197   -35.068439     12.11244    244.01308            0 
  257500       257498    99.999029    12.546139    3148929.3 0.0084600266    227.85186    1717.9443   -29.639158    12.629532    244.86148            0 
  258000       257998    100.10606     12.73165    3147904.3 0.0084627813    223.98279    1715.6702   -34.256059     12.70309    245.53576            0 
  258500       258498    99.937819    12.638122    3156090.4  0.008440831    224.95146    1714.1318   -32.509802    12.827465    244.63379            0 
  259000       258998    100.08526    10.352499    3183480.7 0.0083682072    223.90375    1715.2811   -33.185627    12.192258    244.89712            0 
  259500       259498    99.908921    10.041096    3193729.4 0.0083413536    226.83423     1715.584   -32.414257    12.900273    246.34821            0 
  260000       259998    100.03583    8.9416262    3196604.1 0.0083338522    226.09166    1716.7325   -32.119272     12.93237    245.27857            0 
  260500       260498    99.873882    8.7630202    3188351.3 0.0083554236    228.18769    1716.4153   -31.770806    13.202336    246.75616            0 
  261000       260998    100.25548    7.6660558    3178528.9 0.0083812438    222.70026    1716.6141   -34.003403    12.544709    244.15895            0 
  261500       261498    99.996822    9.0665561    3161158.4 0.0084272986    225.46955    1715.5291   -33.511166    12.908457    246.07226            0 
  262000       261998    100.03702    9.6658487    3143366.4 0.0084749987    221.97078    1712.6294   -36.697879    12.624454     246.0442            0 
  262500       262498    100.20827    10.590628    3129866.1 0.0085115545    224.27779    1717.4882   -33.649305    12.829475    245.09762            0 
  263000       262998    100.02705    12.407452    3118721.9 0.0085419691    222.21492    1712.7249   -36.337253     12.84385    245.70833            0 
  263500       263498    100.20528    11.531264    3114843.6 0.0085526047    219.20532    1712.3711   -38.480146       13.154    244.53147            0 
  264000       263998    99.818442    11.216326      3113335 0.0085567489    226.21854    1713.6201   -33.901159    12.704689    247.41501            0 
  264500       264498    99.980851    10.347391    3109013.1 0.0085686437    224.74339     1714.565   -34.398354    12.748219    246.39353            0 
  265000       264998    100.16956    8.5389722    3114516.1  0.008553504    222.48946    1715.1231   -34.436007    13.667777    243.25769            0 
  265500       265498    99.939185    8.7146282    3119770.4 0.0085390982    225.42743    1714.6282    -32.96252    12.499047     245.8909            0 
  266000       265998    99.796276    9.2882382    3124118.4 0.0085272139    229.48283    1716.5541   -30.032493    12.768135    246.74719            0 
  266500       266498    100.18524    9.3766987    3119888.7 0.0085387743    224.01297    1716.8802   -35.424414    13.542542    245.89484            0 
  267000       266998     100.1077    9.8260906    3115434.1 0.0085509835    223.63997    1715.3517   -34.360841    12.506139    245.49468            0 
  267500       267498    100.13541     9.477671      3103049 0.0085851129    219.90367    1712.0284   -38.084628    13.532953    244.45534            0 
  268000       267998    99.882325    9.7294557    3102803.4 0.0085857923    216.19538    1704.5488   -42.958105    13.502272    245.65121            0 
  268500       268498    99.931019    10.018401    3110127.6 0.0085655733     218.8521    1707.9312   -40.744352    12.673035    246.92341            0 
  269000       268998    99.883249    10.501254    3118739.7 0.0085419204    225.78015    1714.1474   -33.303909    12.685319    246.39874            0 
  269500       269498    99.948374    11.198747    3113110.7 0.0085573656    222.94905    1712.2867   -38.331723    13.248905    248.03187            0 
  270000       269998    99.774005    12.322238    3106529.7 0.0085754938    224.70854    1711.4479   -34.371315    13.119688    245.96017            0 
  270500       270498    100.01152    12.462748    3104306.9 0.0085816342    221.70861    1711.9873   -37.661437    13.700839    245.66921            0 
  271000       270998    100.11246     11.33466    3109323.4 0.0085677888    223.44603    1715.2287   -35.339541      13.1673    245.61827            0 
  271500       271498    99.857605    12.061474    3103650.7 0.0085834484     224.9212    1712.9063   -33.450468    13.154458    245.21721            0 
  272000       271998    100.06936    11.725287      3098686 0.0085972008    219.54529    1710.6858   -41.060151    13.470117    247.13532            0 
  272500       272498    99.892026    11.004554    3094790.6 0.0086080222    224.99801     1713.496   -36.622485    13.272319    248.34817            0 
  273000       272998    99.892421    8.8861272    3097545.2 0.0086003672    223.99719    1712.5011   -37.139868     13.96613    247.17092            0 
  273500       273498    100.04143    8.8519507    3111752.1 0.0085611015    222.24634    1712.9706   -36.282278    13.179008    245.34961            0 
  274000       273998    99.934244    8.5860604    3122494.4  0.008531649    224.46171    1713.5888    -35.84696    13.689036    246.61963            0 
  274500       274498    99.709574    9.4249099    3119615.2  0.008539523    233.23266    1719.0119   -31.639757    14.763072    250.10934            0 
  275000       274998    99.816109    9.3023789    3105608.8 0.0085780366    225.84464    1713.2114   -34.969341    13.549928    247.26405            0 
  275500       275498    99.926769    8.4900274    3101556.8 0.0085892434    226.55217    1715.5679   -34.361165     12.87856    248.03478            0 
  276000       275998    99.904755    8.4672835    3099997.7 0.0085935632     227.3114    1715.9991   -32.987923    13.770699    246.52863            0 
  276500       276498    100.16135    9.1025629      3100157 0.0085931215    223.41611    1715.9273   -37.767077     14.28119      246.902            0 
  277000       276998    99.982786    10.813654    3107331.7 0.0085732805    226.54882    1716.3993   -33.707477    13.027155    247.22914            0 
  277500       277498    100.10039    12.388695    3113141.2 0.0085572815    225.36268    1716.9656   -36.136601    13.593748    247.90553            0 
  278000       277998    99.856256    12.182395    3120381.2 0.0085374269    232.28709    1720.2521   -29.711064    14.307475    247.69068            0 
  278500       278498    100.13039    11.638981    3116013.9 0.0085493924    227.26245    1719.3124    -33.30959    13.540783    247.03126            0 
  279000       278998    100.15665    10.374065      3110879 0.0085635045     227.8222    1720.2634   -31.773288    13.612088    245.98341            0 
  279500       279498    100.06137    8.7374633    3109374.9 0.0085676468     226.9409    1717.9624   -34.783629    14.050967    247.67356            0 
  280000       279998    99.606333    8.6655046      3102683 0.0085861256     233.1499    1717.3908   -30.252538      14.6809    248.72154            0 
  280500       280498    99.787443     9.462384      3100266 0.0085928195    232.77797    1719.7176    -29.11715    13.475277    248.41984            0 
  281000       280998    100.08768    8.5520635    3100011.2 0.0085935257    230.10862    1721.5221   -29.789863     13.86851    246.02997            0 
  281500       281498     100.0009    9.3835992    3101169.8 0.0085903152    229.54808    1719.6685   -33.314116    14.034589    248.82761            0 
  282000       281998    99.944282    10.126134    3100900.4 0.0085910616    229.66909    1718.9458   -33.190242    13.627488    249.23184            0 
  282500       282498    100.27842     10.70217    3087014.4 0.0086297057    223.13916    1717.3948   -38.705738    14.036597     247.8083            0 
  283000       282998     99.96649    11.174268    3077788.5 0.0086555739    226.41858    1716.0262   -35.193578     14.14451    247.46765            0 
  283500       283498     100.0662    11.885396    3076231.3 0.0086599555    228.25645    1719.3499   -34.828311    13.343074    249.74168            0 
  284000       283998    100.13538    10.847837    3076491.1 0.0086592241     228.2426    1720.3669   -33.601146    13.410593    248.43315            0 
  284500       284498    99.975195    10.118554    3074049.5 0.0086661018    226.59535    1716.3327   -34.476646    14.175104     246.8969            0 
  285000       284998    100.09854    10.002407    3069041.9 0.0086802419    227.05597    1718.6313   -34.730977    14.228789    247.55815            0 
  285500       285498    99.940799    10.273787    3064066.1 0.0086943379    228.61718     1717.842   -35.618435    14.107303    250.12831            0 
  286000       285998    99.941607    10.862154    3064104.2 0.0086942298    227.29012    1716.5269   -37.839755    13.910416    251.21946            0 
  286500       286498    99.863429    11.285095      3072097 0.0086716096    228.51383    1716.5857   -35.567798    13.984216    250.09741            0 
  287000       286998    100.18544    10.464095    3088392.4 0.0086258552    225.87834    1718.7485   -35.324412    14.626384    246.57637            0 
  287500       287498    99.749575    11.664062    3100133.6 0.0085931863    230.33206    1716.7074   -34.161249    14.123027    250.37028            0 
  288000       287998    99.999807    10.222907    3114422.8 0.0085537601    232.11121    1722.2153   -29.748434     13.55589    248.30376            0 
  288500       288498    100.03355    10.464586    3118286.5 0.0085431619    232.74916    1723.3561    -31.32687    14.673765    249.40227            0 
  289000       288998    100.02483    9.6677511    3118560.7 0.0085424106    234.45218    1724.9292    -30.03055    15.055924    249.42681            0 
  289500       289498    99.981528    9.5629995    3116969.5 0.0085467713    234.84142    1724.6731   -31.140813    13.466326     252.5159            0 
  290000       289998    100.07637    9.1300869    3116254.8 0.0085487315    231.20452    1722.4495    -33.21987     14.42381    250.00058            0 
  290500       290498    100.25074    8.3539233    3111133.6 0.0085628036    224.64394    1718.4872   -35.981206    14.454511    246.17063            0 
  291000       290998    99.835874    10.540813      3116939  0.008546855    233.64363    1721.3049   -32.586152    14.248766    251.98101            0 
  291500       291498    99.926359    10.157586    3130612.6  0.008509525    230.09159    1719.1012    -37.31781    14.456511    252.95289            0 
  292000       291998    100.13167    9.0748109    3139044.8 0.0084866664    226.06221    1718.1311   -37.496743    14.485466    249.07349            0 
  292500       292498    100.00536    10.258366    3134123.7 0.0084999919    226.34883    1716.5357   -38.447334    15.065721    249.73044            0 
  293000       292998    100.06409    9.3773559    3132684.7 0.0085038962    232.06486    1723.1268   -33.740525    14.731796    251.07358            0 
  293500       293498    100.03348    9.4624912      3124435 0.0085263499    227.20383    1717.8097   -37.203785    15.083978    249.32363            0 
  294000       293998    100.04789    9.2189655    3118221.9 0.0085433388    228.14956    1718.9701   -35.826975    14.409861    249.56668            0 
  294500       294498    99.972172    10.188064    3108382.5 0.0085703822    231.48835    1721.1806   -34.756242    15.071664    251.17292            0 
  295000       294998    99.892733    10.104232    3099329.5 0.0085954157    233.75891    1722.2675    -33.01989    15.116523    251.66228            0 
  295500       295498    100.17926    10.274782    3097572.1 0.0086002925    228.71331    1721.4914   -36.110933    13.745542     251.0787            0 
  296000       295998    100.00198     11.26674    3106359.1 0.0085759646    230.22123    1720.3577   -34.751604    15.025725    249.94711            0 
  296500       296498    99.903936    11.463807    3119516.7 0.0085397927    230.64419    1719.3197    -34.80233    14.525516      250.921            0 
  297000       296998    100.13431    10.080123    3138317.2 0.0084886338    227.42409    1719.5324   -37.050959     14.16222    250.31283            0 
  297500       297498    99.842979    11.860543      3147424 0.0084640727    235.54637    1723.3135   -31.043454    14.884214    251.70561            0 
  298000       297998    100.30015     11.22552    3143846.5 0.0084737043    225.17946    1719.7589   -39.340287    14.631311    249.88843            0 
  298500       298498    99.989509    11.811618    3158840.1 0.0084334835    232.35512    1722.3057   -34.364451      14.4562    252.26337            0 
  299000       298998    99.923063    11.528705    3169359.6 0.0084054917    232.70861    1721.6691   -34.721583    15.269415    252.16078            0 
  299500       299498    100.12709    11.087596      3169374 0.0084054536    226.91348    1718.9142   -38.040582    14.757885    250.19618            0 
  300000       299998    100.18803    10.501034    3162095.7 0.0084248006    227.53991    1720.4486   -36.852108     14.16576    250.22626            0 
  300500       300498    100.00138    11.617861    3144571.8 0.0084717499    230.72019    1720.8477   -37.656643    15.681274    252.69556            0 
  301000       300998    99.874131    10.426619    3138338.8 0.0084885756    228.72874    1716.9601   -39.351517    14.662048    253.41821            0 
  301500       301498    99.784262    10.783559    3137263.9 0.0084914838    230.31749    1717.2097   -37.459256    14.457662    253.31909            0 
  302000       301998    100.11641     8.653452    3143146.9 0.0084755906    226.44115    1718.2827   -40.100558    15.216254    251.32546            0 
  302500       302498    99.945395    7.3829699    3144854.3 0.0084709888    231.46883    1720.7621   -37.406992    15.425424    253.45039            0 
  303000       302998    99.944742    5.7649148    3139153.6 0.0084863723    232.32329    1721.6068   -36.394059    15.791325    252.92603            0 
  303500       303498     99.92252    4.5501732      3140698 0.0084821991    232.67964    1721.6321   -32.724291    14.323777    251.08016            0 
  304000       303998    100.02972    6.0938586    3138060.9 0.0084893272    229.74731    1720.2971   -37.366778    15.117392     251.9967            0 
  304500       304498     99.96965    8.7789671    3136216.8 0.0084943191    231.23242    1720.8871   -37.654421    15.727879    253.15896            0 
  305000       304998    100.06941    10.612389    3134782.4 0.0084982057    232.06201    1723.2032    -36.09485    14.464061     253.6928            0 
  305500       305498    99.676385    13.431985    3128478.2 0.0085153305    233.75316    1719.0379   -34.233748    15.845414    252.14149            0 
  306000       305998    99.962403    12.522604      3140937 0.0084815536    225.89693    1715.4436   -42.102005    14.948968    253.04997            0 
  306500       306498     100.1333    10.288671    3140745.4 0.0084820712    226.92821    1719.0215   -39.274874    14.984294    251.21879            0 
  307000       306998    100.02907    10.405533    3130023.8 0.0085111257     228.8427    1719.3829   -39.792144    15.559389    253.07546            0 
  307500       307498     100.0174    9.8179489    3124305.6 0.0085267029    233.64579     1724.012   -35.061506    14.845083    253.86221            0 
  308000       307998    100.19776    9.9333747    3112329.3 0.0085595139    228.82102    1721.8748   -38.057856     15.06879    251.81008            0 
  308500       308498    100.02147     9.756437    3110573.7 0.0085643449    232.30637    1722.7332    -34.44256     15.95181    250.79712            0 
  309000       308998     100.1428     10.13168    3110814.8 0.0085636812      233.753    1725.9877   -35.260691    15.237827    253.77586            0 
  309500       309498     100.1155    8.4528459    3117035.4 0.0085465908    229.56484    1721.3928   -37.466518    15.460141    251.57122            0 
  310000       309998    99.973296    8.5306255    3127361.5 0.0085183713     234.1388    1723.8478   -34.321955    15.781107    252.67965            0 
  310500       310498    99.937963    9.6385445    3127010.5 0.0085193272    237.76856    1726.9511   -32.855896    15.736684    254.88777            0 
  311000       310998    100.05288    10.707842    3109774.1 0.0085665471    234.99779    1725.8927   -35.221635    15.348228     254.8712            0 
  311500       311498    100.11936    10.364196    3111064.6 0.0085629935    229.71218    1721.5977   -37.487853    15.346087    251.85394            0 
  312000       311998    100.01278    10.927565    3108072.3 0.0085712375    234.81704    1725.1144   -34.365268    16.372119    252.81019            0 
  312500       312498    99.862166    11.592011    3095537.1 0.0086059463    233.79893     1721.852   -37.395367    15.942899     255.2514            0 
  313000       312998    100.15411    10.182572    3081604.6 0.0086448553    227.96341    1720.3667   -40.382158     15.41174    252.93383            0 
  313500       313498    99.683251    9.2088126    3085859.8 0.0086329345    237.57074    1722.9578   -34.089738    16.641363    255.01911            0 
  314000       313998    100.04484    7.3827514    3083274.2 0.0086401741    234.23267    1725.0078   -35.190425    16.703976    252.71912            0 
  314500       314498    99.905424    8.7927151    3078526.8  0.008653498    237.76424    1726.4619   -32.254643    15.891236    254.12764            0 
  315000       314998    100.05982    7.8436211    3072569.6 0.0086702759    232.92491    1723.9233   -36.088727    16.385239     252.6284            0 
  315500       315498    99.797001    8.3003019    3068088.7 0.0086829388    240.41417    1727.4962   -32.094912    16.407328    256.10175            0 
  316000       315998    100.06718    8.7036352    3066352.7 0.0086878544    236.69648    1727.8044   -33.744698    15.730179      254.711            0 
  316500       316498    99.805278    9.9398788    3066915.6 0.0086862598    235.68358     1722.889   -35.993469    15.613587    256.06346            0 
  317000       316998    99.942962    10.543839      3073642 0.0086672507    234.37945    1723.6365   -37.022225    15.820277     255.5814            0 
  317500       317498    100.02575    11.358094    3070147.1 0.0086771172    230.86956    1721.3602   -38.273934    16.435505    252.70799            0 
  318000       317998    100.16542    11.354067    3070342.7 0.0086765644    233.24436    1725.8163   -34.147188    16.131679    251.25986            0 
  318500       318498    100.24548     12.56461    3067468.7 0.0086846936    234.72432    1728.4892   -34.310474    15.224237    253.81056            0 
  319000       318998    100.05809    13.232465    3069387.9 0.0086792633    234.32556    1725.2981   -36.314556    15.695302    254.94482            0 
  319500       319498    99.996738     13.54915    3069018.5 0.0086803081    235.56158    1725.6199   -36.682286    16.804426    255.43944            0 
  320000       319998     100.0878    12.646103    3073641.1 0.0086672533    231.98696    1723.4022   -37.864599    15.708662     254.1429            0 
  320500       320498    99.927277    10.620832    3087018.9 0.0086296932    238.25176     1727.275   -31.602044    15.997866    253.85594            0 
  321000       320998    100.07669    8.8976495    3100479.7 0.0085922273    238.82432     1730.074   -31.842158    17.132553    253.53393            0 
  321500       321498    99.797644    7.9936241    3104607.7 0.0085808027    243.58758    1730.6792   -30.566129    16.334877    257.81883            0 
  322000       321998    100.01993    4.0515182    3107933.7 0.0085716198     243.1726    1733.5765   -28.822091    16.715114    255.27958            0 
  322500       322498    100.00222    3.7462709    3105434.3 0.0085785187    238.88025    1729.0203   -32.974261    17.486952    254.36756            0 
  323000       322998    99.910273    5.3265769    3106684.7 0.0085750658    240.32323    1729.0931   -33.536509    16.907119    256.95262            0 
  323500       323498    99.891335    7.5085716    3098317.4 0.0085982235    244.69205    1733.1798   -29.277675    16.530318     257.4394            0 
  324000       323998    100.04692    9.5630417    3079395.1  0.008651058     242.4906    1733.2967   -29.045174    16.760293    254.77548            0 
  324500       324498    100.14999    12.065432    3062520.3 0.0086987264    236.81962    1729.1616   -33.819641     16.59505    254.04421            0 
  325000       324998    100.11999    14.108784    3055094.8 0.0087198687    236.42443    1728.3194   -34.361997    15.870801    254.91563            0 
  325500       325498    99.963561    16.918251    3051702.9 0.0087295607    236.54025    1726.1042   -37.345934    15.952935    257.93325            0 
  326000       325998     100.1573    15.978875    3053676.2 0.0087239197    235.61756    1728.0684   -35.914561    16.163628     255.3685            0 
  326500       326498     100.1964    15.074038    3053620.2 0.0087240795    233.17205    1726.2056   -37.767305     16.06398    254.87538            0 
  327000       326998     100.0754    12.572296    3059693.7 0.0087067625     235.0029    1726.2334   -34.822468    16.816712    253.00866            0 
  327500       327498    100.08046    9.3218624    3079621.5 0.0086504222     238.2552    1729.5611    -33.11159    16.955791      254.411            0 
  328000       327998    99.963607     9.257777      3086845 0.0086301794    239.56421    1729.1289   -35.362089    16.866602     258.0597            0 
  328500       328498    99.857646     8.050622    3083242.8 0.0086402622     242.3916    1730.3773   -33.069831    16.326643    259.13479            0 
  329000       328998    99.920305    7.0736812    3067699.3 0.0086840407      241.218    1730.1374      -32.364    18.036758    255.54525            0 
  329500       329498    99.918396    7.4083961    3058369.4 0.0087105324    245.28452    1734.1755    -28.95967    18.371856    255.87233            0 
  330000       329998    100.33247    6.5000954    3054627.1  0.008721204     237.0994    1732.1606   -33.324503    17.443958    252.97994            0 
  330500       330498    99.923458    7.5008947    3062121.4 0.0086998596    237.80583    1726.7722   -35.157041    16.807234    256.15564            0 
  331000       330998    99.805098    7.4127429    3078965.8 0.0086522642    240.22312    1727.4258   -34.032733    17.902707    256.35315            0 
  331500       331498    100.06791    7.7395051    3093482.7 0.0086116616    238.22643    1729.3453   -36.415132    16.970971    257.67059            0 
  332000       331998    99.805014     9.815853    3093592.2 0.0086113568    239.46617    1726.6676   -36.588663    17.806539    258.24829            0 
  332500       332498    100.17429    10.024152    3092770.4 0.0086136449    236.58102    1729.2851   -34.572718    17.031383    254.12236            0 
  333000       332998    100.06814    13.172536    3096263.3 0.0086039278    240.67913    1731.8014   -32.512705    16.098033    257.09381            0 
  333500       333498    100.08112    13.567746    3105624.7 0.0085779927     238.3746    1729.6903   -35.032636    18.629922    254.77731            0 
  334000       333998    100.04943    13.258069    3109598.7 0.0085670301    238.03535    1728.8788   -35.447092    17.668492    255.81395            0 
  334500       334498     99.89244    13.562946    3096524.6 0.0086032017    241.84918    1730.3534   -32.147837    16.922861    257.07416            0 
  335000       334998    100.13142    11.296392    3083495.5 0.0086395539    234.96572    1727.0309   -39.398435    17.447328    256.91683            0 
  335500       335498    99.999204    9.0841959    3074404.2  0.008665102    235.45894     1725.554   -38.233664    16.814714    256.87789            0 
  336000       335998    99.908323    7.5813099    3073302.6 0.0086682078    240.55285    1729.2937   -35.205423    18.220576     257.5377            0 
  336500       336498    100.02565    7.0492769    3086497.4 0.0086311512    240.14223    1730.6314   -35.708014    18.128695    257.72155            0 
  337000       336998    99.936704    7.0024754      3096818 0.0086023866    238.64339    1727.8072   -36.150445    17.629052    257.16479            0 
  337500       337498    100.07267    7.3416876    3098877.7 0.0085966689    240.97762    1732.1674   -33.660179    17.778807    256.85899            0 
  338000       337998    99.958817    7.8792107    3105399.2 0.0085786156    240.07036    1729.5636   -33.925976    18.065535     255.9308            0 
  338500       338498    100.04038    7.3760486    3106936.2 0.0085743717    243.62582    1734.3344   -33.064749    17.671094    259.01948            0 
  339000       338998    99.879034    7.5740308    3094828.3 0.0086079171    243.85868    1732.1631   -32.086511    17.616724    258.32847            0 
  339500       339498    99.921589     8.261891      3077983 0.0086550271    240.92959    1729.8681   -36.443149    17.925739      259.447            0 
  340000       339998    100.07283    9.8691601    3054326.1 0.0087220634    234.84369    1726.0358   -39.814877    17.587532    257.07103            0 
  340500       340498    100.20233    11.596255    3043413.9 0.0087533363    231.36633    1724.4882   -38.920282    17.286303    253.00031            0 
  341000       340998     99.88527    16.017425    3041924.6  0.008757622    237.04464     1725.442   -38.862833    17.326846    258.58063            0 
  341500       341498    100.03822    14.632117    3039852.5 0.0087635916    239.64429    1730.3208   -36.380464    18.196789    257.82797            0 
  342000       341998    100.13606    13.903486    3031626.1 0.0087873719    236.29712    1728.4316   -38.164374    17.272163    257.18934            0 
  342500       342498    100.12922    10.143627      3029210 0.0087943806    237.96692    1729.9993   -38.032513    18.212732     257.7867            0 
  343000       342998    100.06767    7.0153532    3033072.4 0.0087831818    236.97933    1728.0946   -38.290616    18.663523    256.60642            0 
  343500       343498    100.07648    6.4329367    3040531.4 0.0087616348    240.89969    1732.1462   -33.984823    17.259295    257.62522            0 
  344000       343998    99.823718    7.4978821    3034441.5 0.0087792187    240.89646    1728.3766   -35.817654    18.394335    258.31977            0 
  344500       344498    100.12959    7.5966267    3032434.7 0.0087850287    237.46359    1729.5016   -37.298368    18.557044    256.20492            0 
  345000       344998    100.13311     9.832053    3019825.2 0.0088217113    235.11734    1727.2078   -39.569359    18.125776    256.56093            0 
  345500       345498    100.05701    11.910987    3010470.3 0.0088491244    238.34101    1729.2975   -38.328425    17.892252    258.77719            0 
  346000       345998    100.03103    13.610309    2996348.6   0.00889083    237.45634    1728.0256   -39.295739    17.787007    258.96507            0 
  346500       346498    100.20259    12.269044    2985519.2 0.0089230796    238.08036    1731.2061   -36.364507    18.509635    255.93523            0 
  347000       346998    100.28255    12.552649    2976923.9 0.0089488435    235.09812    1729.4153   -38.481986    17.874161    255.70594            0 
  347500       347498    99.961626    12.114687    2978179.1 0.0089450717    235.64683     1725.182   -38.721155    17.656129    256.71185            0 
  348000       347998    99.768308    11.069574    2985827.8 0.0089221575    242.53081    1729.1853   -34.131505    18.890713     257.7716            0 
  348500       348498    100.01853     10.28246    2992862.1 0.0089011873     243.2218    1733.6049   -34.017348    18.293555    258.94559            0 
  349000       348998    99.998026    9.9009221    2999591.5  0.008881218    239.24709    1729.3246    -37.90243    18.270247    258.87927            0 
  349500       349498    100.11111    8.1292294    3016779.6 0.0088306171    240.45045     1732.213   -35.798199    18.365866    257.88278            0 
  350000       349998    99.840993    8.9059057    3023344.6  0.008811442    243.42773    1731.1653    -34.13222     18.98467    258.57529            0 
  350500       350498    100.13634    7.3161654    3019764.5 0.0088218887    237.16611    1729.3047   -39.470664     18.83295    257.80382            0 
  351000       350998    99.914671    7.2511905    3021424.2 0.0088170426    238.91706    1727.7525   -38.453633     18.11973    259.25097            0 
  351500       351498    99.946978    8.3076797      3011427 0.0088463131    237.05645    1726.3733   -41.470414    19.049069     259.4778            0 
  352000       351998    99.767789    9.2970471    3017929.1 0.0088272538     240.7828    1727.4296   -37.598106    19.304041    259.07686            0 
  352500       352498    99.899904    10.585261    3022603.9 0.0088136014    241.26709    1729.8825   -34.829785    17.995295    258.10158            0 
  353000       352998    100.27127    10.447072      3016923 0.0088301976    234.35765    1728.5068   -40.979364    18.417944    256.91907            0 
  353500       353498    99.836947    12.261743    3021843.4 0.0088158193    241.33087    1729.0082   -38.406232    18.559027    261.17808            0 
  354000       353998    99.795038    13.187584    3025513.9 0.0088051244     244.9463    1731.9991   -33.341319    19.325067    258.96255            0 
  354500       354498    100.05787    12.983227    3036450.9 0.0087734092    238.00015    1728.9694   -38.369726    18.223177     258.1467            0 
  355000       354998    100.20135    11.563232    3060797.3 0.0087036229    240.05495    1733.1622   -36.395657    18.270899    258.17971            0 
  355500       355498    100.08555    11.656517      3070439 0.0086762923    239.31481    1730.6965   -37.937075    19.479428    257.77246            0 
  356000       355998    100.20281    11.055207    3072656.6 0.0086700302    237.15446    1730.2835   -40.638827    18.382045    259.41124            0 
  356500       356498    99.794596     10.48194    3086595.8 0.0086308762    246.68932    1733.7355   -33.906324    18.393643      262.202            0 
  357000       356998    99.782421    10.378496    3090528.7 0.0086198929    247.09291    1733.9577   -33.407578    19.638748    260.86174            0 
  357500       357498    100.15456    9.9534258    3084560.1  0.008636572    238.83085    1731.2409   -38.885692    19.101923    258.61462            0 
  358000       357998    99.783508    9.3555077    3080832.7 0.0086470212    247.71457    1734.5956   -32.082181    18.972314    260.82444            0 
  358500       358498    100.17493    7.9396673      3069234 0.0086796987    247.46681    1740.1805   -31.222132    19.209102    259.47984            0 
  359000       358998    100.08489    9.4938614    3057653.3 0.0087125724    244.28518     1735.657   -36.127654    18.695011    261.71783            0 
  359500       359498    99.996745    11.133402    3045380.4 0.0087476842    243.48329    1733.5417   -34.816535    19.452811    258.84701            0 
  360000       359998    100.16336    12.349727    3038521.4 0.0087674306     246.9146    1739.4557    -31.23869    18.911038    259.24225            0 
  360500       360498    99.978763    13.279108    3034399.7 0.0087793397    246.00374    1735.7942   -33.508309    18.819416    260.69263            0 
  361000       360998    99.920444    11.857293    3032475.7   0.00878491    244.52609    1733.4476   -34.632894    19.086961    260.07202            0 
  361500       361498    100.02434    10.615146    3025601.7 0.0088048688    243.85861    1734.3283   -35.094373     19.25023    259.70275            0 
  362000       361998    100.00679    9.1409111    3012573.8 0.0088429455    240.95879    1731.1668   -38.743274    18.620698    261.08136            0 
  362500       362498    99.955188     7.251878    3003499.7 0.0088696615    243.02065    1732.4598   -37.092275    19.309443    260.80349            0 
  363000       362998    99.707709    7.6608936    3004078.2 0.0088679536    249.61011    1735.3616   -30.854133    20.005109    260.45913            0 
  363500       363498    100.22942      5.76629    3007212.2 0.0088587117    240.54656    1734.0721   -36.873126    19.079171    258.34052            0 
  364000       363998    99.956419    6.4656301      3007906 0.0088566683    242.57524    1732.0328   -38.333881    18.949539    261.95958            0 
  364500       364498    99.690942    8.6893738    3011126.2 0.0088471968    246.55512    1732.0568    -37.75449    19.804633    264.50498            0 
  365000       364998    100.09892    8.5827959    3016004.2 0.0088328875    245.38331    1736.9642   -33.908753    19.824564     259.4675            0 
  365500       365498    100.20354    10.283693    3008022.3  0.008856326    241.35535    1734.4953   -36.273619    19.266224    258.36274            0 
  366000       365998    100.19862    10.501736    3010115.1 0.0088501686    240.72256    1733.7892   -37.935849    19.216305     259.4421            0 
  366500       366498    100.04257    11.686744    3010053.8 0.0088503489    245.26988    1736.0111    -36.19924    19.427764    262.04135            0 
  367000       366998    99.858849    11.350666    3009015.5 0.0088534026    253.19176    1741.1954   -28.864633    19.091926    262.96446            0 
  367500       367498    100.07166    11.460552    3006141.9 0.0088618657    248.66176    1739.8365   -29.141054    18.482519    259.32029            0 
  368000       367998    100.18034    13.033445    3010145.4 0.0088500795    250.34139    1743.1355   -29.629137    19.384078    260.58645            0 
  368500       368498    99.925898     13.76542      3020185 0.0088206603    253.60467    1742.6074   -29.409532    19.257494    263.75671            0 
  369000       368998    100.07971    13.672019    3033102.8 0.0087830936      247.328    1738.6227   -33.889614    19.124669    262.09295            0 
  369500       369498    100.04233    10.997169    3041789.7 0.0087580105    242.94102    1733.6787    -37.20545    19.962937    260.18354            0 
  370000       369998    99.919719    9.6536004    3047077.9 0.0087428108    251.55168    1740.4624   -30.643472    19.334155      262.861            0 
  370500       370498    100.10425    7.9920111    3035512.1 0.0087761224    251.07829    1742.7387   -30.627758    18.966773    262.73927            0 
  371000       370998    99.893624    6.1535848    3023434.2  0.008811181    253.49798    1742.0198   -29.514732     20.10704    262.90567            0 
  371500       371498    100.09184    6.0962011    3007336.8 0.0088583446    245.37574    1736.8512   -34.991676    19.628481    260.73894            0 
  372000       371998    99.755971    8.1274718    3007516.2 0.0088578162    248.50567    1734.9763   -34.499855    20.084863    262.92067            0 
  372500       372498    99.848894    9.7994198    3008160.3 0.0088559196    249.83876    1737.6941   -34.387572     20.03568    264.19065            0 
  373000       372998    99.978124    10.701184      3002290 0.0088732355    248.72515    1738.5061    -33.88055    19.640906    262.96479            0 
  373500       373498    100.04881    10.681293    2998742.2 0.0088837334    245.29657    1736.1308   -35.979293    19.285037    261.99082            0 
  374000       373998    99.904375    10.917282    2999499.1 0.0088814916    251.73016    1740.4122   -30.147458    20.345705    261.53191            0 
  374500       374498    99.908182    10.576931    3015080.5 0.0088355936     250.4283    1739.1671   -32.982527    19.911424     263.4994            0 
  375000       374998     99.94544     9.834665      3031527 0.0087876593    251.11597    1740.4099   -31.300495    19.277189    263.13928            0 
  375500       375498    100.09592    10.022531    3034039.3 0.0087803827    247.30308    1738.8394   -35.415985    19.941868    262.77719            0 
  376000       375998     99.80999    11.530666    3029604.4 0.0087932357     245.7639    1733.0395   -37.475827    20.001359    263.23836            0 
  376500       376498    99.888773      11.3793    3034571.8 0.0087788419    252.09783    1740.5474   -32.228453    19.232846    265.09344            0 
  377000       376998    100.14562    11.624684    3042900.8 0.0087548125    247.31976    1739.5967   -34.066044    19.945783    261.44002            0 
  377500       377498     100.1972    11.483736      3056209 0.0087166898    245.78547    1738.8309   -34.565958    20.034408    260.31702            0 
  378000       377998    99.968825    11.246519    3066370.4 0.0086878043    251.34888    1740.9913   -32.033329    19.839776    263.54243            0 
  378500       378498    99.960624    10.885394    3062970.1 0.0086974489    254.29312    1743.8133   -29.973717    19.688119    264.57872            0 
  379000       378998    99.861044    10.670613    3052676.7  0.008726776     253.4279    1741.4643   -32.301137    20.610153    265.11889            0 
  379500       379498    100.27439    8.8564402    3041726.8 0.0087581915     244.3873     1738.583   -38.236137    19.338295    263.28515            0 
  380000       379998    99.904925    8.1921702    3043915.9 0.0087518929    250.97864    1739.6689   -31.477634    20.799532    261.65674            0 
  380500       380498    100.27706    8.3629923    3040904.9 0.0087605586    245.08422    1739.3196   -36.475056    19.811851    261.74742            0 
  381000       380998    99.978894    8.8510555    3037708.5  0.008769777    248.52205    1738.3145   -34.617211     19.31299    263.82627            0 
  381500       381498     99.75694    9.0201096    3040798.9  0.008760864    254.66412    1741.1492   -32.611203    20.854067    266.42125            0 
  382000       381998     99.94848    8.9670293    3048537.9 0.0087386239    246.82343    1736.1627   -37.182039    20.803258    263.20221            0 
  382500       382498    100.15524    9.5135005    3049545.5 0.0087357366    242.28672    1734.7069   -40.152464    20.750436    261.68875            0 
  383000       382998    99.758794    10.502964    3050053.3 0.0087342822    247.42609    1733.9388   -37.927532    20.362436    264.99118            0 
  383500       383498    100.26127    10.468937    3033610.9 0.0087816226    244.52301    1738.5232   -38.982839     20.23064    263.27521            0 
  384000       383998    99.845561    9.9946602    3029690.6 0.0087929856    249.50466    1737.3103   -35.179949    20.636855    264.04775            0 
  384500       384498    100.11624    9.6702391      3030275 0.0087912899    246.50534    1738.3444   -36.425705    20.907966    262.02308            0 
  385000       384998    100.00359      10.1294    3033417.9 0.0087821811    247.36704    1737.5275   -37.407128    20.154471     264.6197            0 
  385500       385498    99.675757    10.173183    3042086.3 0.0087571566    251.97572    1737.2511   -32.784671    21.063066    263.69733            0 
  386000       385998    100.25921    10.131841    3038247.7 0.0087682205    243.81191    1737.7814   -38.198423    20.325345    261.68499            0 
  386500       386498    100.01398    9.7119855    3029369.5 0.0087939177    251.14428    1741.4595   -34.203177    20.260272    265.08718            0 
  387000       386998    99.770607     9.313712    3028205.4 0.0087972983    250.82891    1737.5177   -36.036273    21.264766    265.60041            0 
  387500       387498    99.791943    9.0273062    3034434.6 0.0087792388    253.54347    1740.5501   -33.168837    21.383969    265.32834            0 
  388000       387998      99.8844    8.8433781    3039000.5 0.0087660485    251.99058     1740.375   -31.315686    21.370051    261.93622            0 
  388500       388498    100.02249    9.2148183    3041530.8 0.0087587558     247.5468    1737.9889   -36.933997    21.196077    263.28472            0 
  389000       388998    99.960958    11.551628    3053014.9 0.0087258095    251.91989    1741.4451   -35.159792     20.55002    266.52966            0 
  389500       389498     99.93274    13.841331    3059583.4 0.0087070762    252.07335     1741.178   -33.292818    20.672828    264.69334            0 
  390000       389998     99.94597    14.941436    3065702.7 0.0086896965    252.21187    1741.5137   -32.735039    20.341796    264.60511            0 
  390500       390498     100.0713    15.794567    3059556.4 0.0087071531    251.46761     1742.637   -34.295908    21.226903    264.53662            0 
  391000       390998     100.0723    15.084292    3048920.1 0.0087375285    252.34443    1743.5287   -32.684997    20.602147    264.42728            0 
  391500       391498    100.27498    12.730662    3036167.9 0.0087742269     246.9279    1741.1324   -38.379977    20.839256    264.46862            0 
  392000       391998    100.01546    8.7949053    3023838.9 0.0088100018    249.35295    1739.6903   -36.683614    20.982116    265.05445            0 
  392500       392498     100.1359    6.8673244    3011782.8 0.0088452679    247.76328    1739.8953   -38.435367    20.918822    265.27983            0 
  393000       392998    100.01543    4.7340791      3005373 0.0088641329    245.68784    1736.0247   -39.609164    21.195502     264.1015            0 
  393500       393498    99.955882    4.8521913    3007083.4 0.0088590913    249.73944     1739.189   -38.398876    21.067873    267.07045            0 
  394000       393998    99.798482    4.6528956      3011876 0.0088449943    251.40769    1738.5118   -35.655344    22.244429    264.81861            0 
  394500       394498    99.904506     5.404725    3010932.5 0.0088477658    247.88311    1736.5671   -40.561844      21.8211    266.62386            0 
  395000       394998    99.695608    7.7709703    3007153.4 0.0088588848    248.86422    1734.4354   -38.973436    20.966981    266.87067            0 
  395500       395498    99.843944    8.3482558    3002530.4 0.0088725251    252.17168    1739.9532   -34.840811     22.31105    264.70144            0 
  396000       395998    99.992426    9.8789821    2995709.5 0.0088927267    249.09822    1739.0923   -37.109649    21.249755    264.95812            0 
  396500       396498    99.854414    10.535759    2996394.1  0.008890695    255.73255    1743.6701   -30.929708    21.074267    265.58799            0 
  397000       396998    100.09142    10.889686    3002488.4 0.0088726491    253.88404    1745.3533   -32.075574    20.786807    265.17281            0 
  397500       397498    100.05659    10.257839    3005455.4 0.0088638899    251.98142    1742.9316   -33.963217    21.571981    264.37266            0 
  398000       397998    100.16641    10.887001    2995976.1 0.0088919354    247.78147    1740.3681   -36.899324    21.897703    262.78309            0 
  398500       398498     99.93676    12.461901    2996805.4 0.0088894747    255.69305    1744.8577   -31.607976    21.342479    265.95854            0 
  399000       398998    100.07428    13.459795    2994047.9 0.0088976619    251.98069    1743.1945   -35.012301    20.414015    266.57897            0 
  399500       399498    99.990841      13.4461      2985570 0.0089229279    250.00516    1739.9756   -36.418667    21.719131    264.70469            0 
  400000       399998    99.948475    12.087177    2984587.6  0.008925865    247.23692    1736.5761   -38.655271    22.649808    263.24238            0 
  400500       400498    99.856486    11.581358    2997620.5 0.0088870575    251.36234    1739.3308   -36.398039    21.552086     266.2083            0 
  401000       400998    99.927914    11.268841    3005198.3 0.0088646481    256.14181    1745.1746   -33.180802    21.110308    268.21231            0 
  401500       401498    100.08864    10.545317    3000650.1 0.0088780847    251.58894    1743.0167   -34.523622    21.709397    264.40316            0 
  402000       401998    99.996325    10.385555    2984997.8 0.0089246385    249.55724    1739.6094   -37.413572    21.619565    265.35125            0 
  402500       402498    100.19968    8.6689618    2972055.8 0.0089635012    248.50774    1741.5901    -36.68855    21.547467    263.64882            0 
  403000       402998    99.817914    7.7056097    2964514.3 0.0089863036    254.35462    1741.7483   -34.844248    22.054474    267.14439            0 
  403500       403498    99.873987    7.4003657    2961559.7 0.0089952689     252.1376    1740.3668   -39.033813    22.307639    268.86378            0 
  404000       403998    99.727213    7.0019321      2968544 0.0089741052    254.07696    1740.1191   -34.436189    22.187978    266.32517            0 
  404500       404498     100.0261    7.7515161      2964048 0.0089877174    247.49892    1737.9948   -38.178243    22.147149    263.53001            0 
  405000       404998    100.07223    7.6305598    2970152.4 0.0089692453    241.84541    1733.0287   -42.649879    21.277893     263.2174            0 
  405500       405498    99.808289    8.4380039    2974420.6 0.0089563748    250.73313    1737.9834   -39.257261    22.144829    267.84556            0 
  406000       405998    99.873511    9.3952003    2964187.4 0.0089872948    250.23006    1738.4522   -39.395484    22.383227    267.24232            0 
  406500       406498    99.871016    10.418187    2954712.4 0.0090161147    250.42405     1738.609   -38.350926    21.883895    266.89108            0 
  407000       406998    100.14766    9.4967675      2942951 0.0090521474    244.44417    1736.7514   -41.159807    22.486621    263.11736            0 
  407500       407498     100.0579    9.4069737      2936138 0.0090731518    247.83005    1738.7998   -40.037746    22.198202     265.6696            0 
  408000       407998    100.00781    9.0167202    2924311.5 0.0091098454    251.19031    1741.4136   -38.259899    21.858194    267.59202            0 
  408500       408498    99.656733    10.311761    2917446.3 0.0091312823    254.25333    1739.2452   -36.855044    22.493017    268.61535            0 
  409000       408998    99.811266    9.4196263    2933363.7 0.0090817329    250.14063    1737.4352   -39.147227    22.720476    266.56738            0 
  409500       409498    99.830635    9.5738262    2949951.7  0.009030665    254.50297    1742.0862   -34.382229    22.744082    266.14112            0 
  410000       409998    100.21365    7.3450398      2949501  0.009032045    247.50155    1740.7921   -40.428621    22.009002    265.92117            0 
  410500       410498    99.718478    8.4218119    2944438.6  0.009047574    252.57292    1738.4849   -38.829785    22.337102     269.0656            0 
  411000       410998    99.967886    8.9128503    2945765.4 0.0090434989    253.74525    1743.3737   -36.959901    22.559352     268.1458            0 
  411500       411498    100.07943    8.0959173    2951882.4 0.0090247586    248.95581    1740.2463   -40.249885    22.785094     266.4206            0 
  412000       411998    100.30336    6.9753363    2956835.9 0.0090096396    250.05245    1744.6797   -36.604222    22.350543    264.30613            0 
  412500       412498    99.937406    9.1917362    2954356.4 0.0090172011    257.81845    1746.9927   -32.719285     22.91454     267.6232            0 
  413000       412998    100.07379    9.0789785    2946178.8 0.0090422298    252.44067    1743.6472   -36.990809     23.26496    266.16651            0 
  413500       413498     99.99026    10.534622    2943259.2 0.0090511995    252.80525    1742.7671   -36.112074    21.619389    267.29793            0 
  414000       413998    100.00515    13.331501    2933450.8 0.0090814635    251.26129    1741.4449    -37.75282    22.547229    266.46688            0 
  414500       414498     99.99092    14.177257    2931673.6 0.0090869687    250.28856    1740.2602   -38.838177     23.76693    265.35981            0 
  415000       414998    99.969985    14.540475    2929167.1 0.0090947444    253.04181    1742.7015   -36.449767    21.972825    267.51876            0 
  415500       415498    99.846861    15.972725    2934562.7 0.0090780224    258.24435    1746.0694   -33.208565    22.656594    268.79632            0 
  416000       415998     100.0765     14.48873    2946513.7 0.0090412022    258.28291    1749.5298   -30.724253    23.006786    266.00038            0 
  416500       416498    100.14728    13.576926    2952061.1 0.0090242123    252.17026    1744.4718   -36.138829    22.566833    265.74225            0 
  417000       416998    100.22081    11.330265    2958115.1 0.0090057435    251.29883    1744.6961   -36.338319     22.67001    264.96714            0 
  417500       417498    100.07728    11.460491    2963878.8 0.0089882306    250.90261     1742.161   -38.219103     22.19011     266.9316            0 
  418000       417998    99.745636    12.187192    2971888.7 0.0089640054    261.69003    1748.0067   -31.585706    22.009716    271.26602            0 
  418500       418498    100.12101     9.513804      2969699 0.0089706148    255.10657    1747.0167   -35.478328    23.739896      266.845            0 
  419000       418998    99.897222     9.025406    2968886.7 0.0089730692    256.97648    1745.5519   -34.934234    23.307784    268.60293            0 
  419500       419498    100.00459     6.903294      2966810 0.0089793501    251.18328    1741.3586    -39.82771    22.207199    268.80379            0 
  420000       419998    99.907541    6.7637141    2971218.1 0.0089660283    250.89103    1739.6202   -41.938701    24.419376    268.41036            0 
  420500       420498    99.753561    5.5205997    2987087.5 0.0089183948    255.50519    1741.9399   -35.953689    22.527022    268.93186            0 
  421000       420998     100.0348    5.1768901    2995583.7 0.0088931003    252.61476    1743.2403   -38.045896    23.802852     266.8578            0 
  421500       421498    99.873481    7.0340818    3000463.9 0.0088786357    258.36531     1746.587   -34.191994    23.932415    268.62489            0 
  422000       421998    99.980917    6.4529012      3002745  0.008871891    259.25801    1749.0806   -32.422572    23.031419    268.64916            0 
  422500       422498    99.796522    7.6979069    2993062.2 0.0089005922    260.61501    1747.6899   -32.041487    23.709487    268.94701            0 
  423000       422998    99.881589    8.1586145    2996289.8 0.0088910045    254.20175    1742.5442   -39.308276    23.555721    269.95431            0 
  423500       423498    100.05483    10.256186    3007262.9 0.0088585624    253.37799    1744.3019   -37.847178    22.363796    268.86137            0 
  424000       423998     99.94819    11.665595    3016528.9  0.008831351    254.66904     1744.004   -38.381461    23.966918    269.08358            0 
  424500       424498    100.13471    13.153256    3018104.7   0.00882674    252.60985    1744.7242   -36.002756    23.412428    265.20018            0 
  425000       424998    100.06225    15.135973    3004797.5 0.0088658307    254.07652     1745.111   -37.334241    21.938078    269.47268            0 
  425500       425498    100.03183    16.041338    2982648.4 0.0089316683    253.59467    1744.1759   -37.654467    23.526512    267.72262            0 
  426000       425998    99.900939    15.879681    2965464.3 0.0089834251    257.40894    1746.0398    -33.74331    23.479859    267.67239            0 
  426500       426498    100.02391     15.85132    2964415.8 0.0089866025    257.10794    1747.5712   -33.151415    22.368291    267.89107            0 
  427000       426998    99.985339    13.220598    2966076.8 0.0089815697    255.01484    1744.9033   -37.684349    23.516331    269.18286            0 
  427500       427498    100.07399    9.6300479    2966432.4 0.0089804931    251.13476    1742.3442   -38.738345    23.193774    266.67933            0 
  428000       427998    100.04924    7.1014122    2968253.3  0.008974984    259.64812    1750.4888    -31.05662    23.838973    266.86577            0 
  428500       428498    99.908449    3.6838325      2976261 0.0089508366    263.14652    1751.8893   -31.530234    24.171456     270.5053            0 
  429000       428998    99.835211    1.4656819    2985064.5  0.008924439    261.08612    1748.7375   -34.295614    23.614521    271.76722            0 
  429500       429498    99.958205   0.89478096    2989781.1 0.0089103601    259.46752    1748.9517   -33.841008    23.613637    269.69489            0 
  430000       429998    100.13218    2.2053402    2985692.2 0.0089225627    258.28909    1750.3656   -32.824516    24.489419    266.62419            0 
  430500       430498    100.00097    7.0851997    2985485.2 0.0089231812    259.94992    1750.0714   -32.251947    23.579756    268.62211            0 
  431000       430998    99.983902    9.4853217    2990168.4 0.0089092057    262.13174    1751.9988   -32.266378    23.966976    270.43115            0 
  431500       431498    100.08173    11.934039    2981377.1 0.0089354768    259.45075    1750.7756    -34.82383    24.477831    269.79675            0 
  432000       431998    99.908528    12.884918    2971184.4 0.0089661301    259.01164    1747.7556   -35.617396    23.313314    271.31572            0 
  432500       432498    100.00826    13.513289    2964885.6 0.0089851782    254.89286    1745.1228   -36.028828    23.082298    267.83939            0 
  433000       432998    100.33049    12.646389      2966809 0.0089793532    250.31089    1745.3425   -42.312349    23.375199    269.24804            0 
  433500       433498    99.990951    12.370662    2976100.6  0.008951319     254.3702    1744.3423   -38.566586    23.652719    269.28407            0 
  434000       433998    99.983354    12.660685    2978682.1 0.0089435612    255.44463    1745.3035    -38.12632    23.068022    270.50293            0 
  434500       434498    100.15469     12.08846    2972304.5 0.0089627513     252.5638    1744.9758   -39.796597      22.7594      269.601            0 
  435000       434998    99.917474    12.575345    2978951.1 0.0089427536     253.3995    1742.2767   -41.035814    23.510019    270.92529            0 
  435500       435498    100.05987    11.442617    2997870.3 0.0088863172     254.0102    1745.0093    -38.87393     23.91033     268.9738            0 
  436000       435998     100.2376    10.634676    3006345.9 0.0088612644    255.90748    1749.5549   -35.323005    22.664118    268.56637            0 
  436500       436498    99.787028    9.8528417    3006722.7  0.008860154    264.97006    1751.9035   -33.410697    24.810772    273.56999            0 
  437000       436998    100.05793    9.2156904    3010825.1 0.0088480814    261.10757    1752.0778   -33.374464    24.093682    270.38835            0 
  437500       437498    99.590195    9.0270774      3015075 0.0088356097    266.04622    1750.0466   -29.441438    23.850029    271.63763            0 
  438000       437998    100.01128     7.397305    3029119.6 0.0087946432    263.08796     1753.363   -32.769096    25.270018    270.58704            0 
  438500       438498    100.10782    7.0573189      3028674 0.0087959372    262.68446     1754.398   -31.645118     24.01368     270.3159            0 
  439000       438998    100.16843    7.2068926    3025345.4 0.0088056147    260.24902    1752.8657   -36.190017    24.001911    272.43713            0 
  439500       439498     99.96286    8.5481739    3021150.3 0.0088178419    259.66796    1749.2215   -34.664758    23.993412     270.3393            0 
  440000       439998    99.920893    8.9542755    3024854.9 0.0088070425    261.79095    1750.7191   -34.120955     24.06701    271.84489            0 
  440500       440498    99.848166    11.939525    3018887.2 0.0088244523    260.75739    1748.6018   -36.980547    23.625701    274.11224            0 
  441000       440998    99.767683    12.896669      3011356 0.0088465215    265.54917    1752.1943   -32.698092    24.584607    273.66266            0 
  441500       441498    100.21631    12.162014    3007167.9 0.0088588421    257.63466    1750.9649   -35.919789    24.715549     268.8389            0 
  442000       441998    100.50148     12.27823    3001558.2 0.0088753989    251.05378    1748.6333   -39.317656    23.108754    267.26268            0 
  442500       442498    99.726731    15.498355    3002293.2  0.008873226    258.90819    1744.9431   -36.833785    24.039823    271.70215            0 
  443000       442998    99.964875    14.659772    3013622.2 0.0088398691    258.42245     1748.006   -37.971009    23.969714    272.42374            0 
  443500       443498    99.836019    13.359364      3024940 0.0088067948    259.81823    1747.4817   -37.031314    24.118942    272.73061            0 
  444000       443998    99.959986     10.51109    3036144.4 0.0087742946    263.14347    1752.6542   -32.761191    25.064136    270.84052            0 
  444500       444498    99.965652    8.4795683    3034070.5 0.0087802923    260.39789     1749.993   -34.904454    24.417596    270.88475            0 
  445000       444998    99.826559    6.5172956    3030697.9 0.0087900631     267.7826    1755.3051   -31.745741    24.380173    275.14817            0 
  445500       445498     99.88441    6.2965427    3014771.7 0.0088364986    264.35228    1752.7368   -34.034707    25.439585     272.9474            0 
  446000       445998    100.19655    6.5429641    3001392.7 0.0088758881    259.33786    1752.3737   -36.150643    24.918993    270.56951            0 
  446500       446498    100.01689    7.0769653    2981830.6  0.008934118    261.90497    1752.2637   -34.575368    24.317584    272.16275            0 
  447000       446998    100.00218    8.2203603    2967763.7 0.0089764647    261.17179    1751.3113   -36.125243    24.797148    272.49989            0 
  447500       447498    100.10986    8.8165728    2964480.8 0.0089864053    256.71316    1748.4572   -39.565589    24.885187    271.39356            0 
  448000       447998    99.987457    12.230041    2962570.2 0.0089922007    259.02947    1748.9495   -36.976113    23.713595    272.29199            0 
  448500       448498    99.853559    14.484659    2963136.4 0.0089904825    261.15231    1749.0771   -37.208883    23.838444    274.52275            0 
  449000       448998     99.77829     14.66214    2976670.6 0.0089496049    263.71146    1750.5147   -33.365321    24.663069    272.41371            0 
  449500       449498    100.35017     14.69985      2982770 0.0089313041    263.48156    1758.8064     -30.8469    24.113535    270.21492            0 
  450000       449998    100.04729    12.917383    2992934.8 0.0089009709    257.09815    1747.9098   -39.669668    24.623682    272.14414            0 
  450500       450498    99.555278    11.622904    3005708.4  0.008863144    264.73903    1748.2191   -33.689703    24.822295    273.60644            0 
  451000       450998    99.992263    10.020515    3012517.7   0.00884311     263.8352    1753.8269   -34.991231    24.912038     273.9144            0 
  451500       451498    100.17138    8.3431636    3004326.2 0.0088672215    261.17457    1753.8353   -35.285534    25.481796    270.97831            0 
  452000       451998     100.0352    10.307118    2996813.8 0.0088894498    266.59207    1757.2235   -31.558922    24.461438    273.68956            0 
  452500       452498    100.10018     9.658429    2991198.4 0.0089061379    266.73659    1758.3363   -31.050694    24.659219    273.12806            0 
  453000       452998    100.09899    10.389988    2981976.9 0.0089336796    266.30528    1757.8872   -31.220232     25.85855    271.66696            0 
  453500       453498    100.04542    9.4333883    2979608.8 0.0089407797    267.24514    1758.0288    -31.46961    25.400561    273.31419            0 
  454000       453998    100.00541     9.371399    2981509.5 0.0089350799    262.82036    1753.0079    -35.62699    24.163324    274.28403            0 
  454500       454498    100.02976     8.171456    2986706.7 0.0089195319    265.39916    1755.9495   -33.469693    24.906914    273.96194            0 
  455000       454998    100.22435    7.6119283    2977332.8 0.0089476143    265.54496     1758.995   -31.967131    25.511569    272.00052            0 
  455500       455498     100.2542    7.5495997    2953892.7 0.0090186168    264.89104    1758.7858   -31.405735    24.794653    271.50213            0 
  456000       455998    99.843907    10.441883      2938073 0.0090671763    264.91606    1752.6971   -35.786224    24.592434    276.10985            0 
  456500       456498    100.02501    11.958241    2927005.8 0.0091014598    264.63265    1755.1123   -33.813574    25.278584    273.16764            0 
  457000       456998    99.781088    14.247958    2917728.3 0.0091303998    268.68704     1755.532   -33.501992    25.138642    277.05039            0 
  457500       457498    100.02549    12.936019    2910500.3 0.0091530743    262.14361    1752.6304   -33.478024    25.355091    270.26655            0 
  458000       457998    100.10894    10.982818    2911985.2 0.0091484069    262.01951    1753.7497   -34.570086    25.075331    271.51426            0 
  458500       458498    99.631745    11.145834    2911275.3 0.0091506377    267.70933    1752.3289   -34.305691    25.848374    276.16665            0 
  459000       458998    99.802596    9.5499199    2914817.7 0.0091395171    265.66606    1752.8315    -34.74027    25.061388    275.34494            0 
  459500       459498    100.20334    7.4026375    2914533.6 0.0091404078    260.69583    1753.8327   -35.279909    25.223629    270.75211            0 
  460000       459998    100.13877     9.656661    2918774.6 0.0091271268    263.52098    1755.6958   -35.493624    25.606369    273.40823            0 
  460500       460498    99.796214    10.822383    2919416.4 0.0091251202     268.4982    1755.5685    -33.11377    26.186341    275.42563            0 
  461000       460998     100.1841    10.893599    2917946.5 0.0091297171    261.22188     1754.072   -37.831413    25.520711    273.53259            0 
  461500       461498     100.0812    9.6203619    2917601.2 0.0091307976    263.27763    1754.5945   -35.134704    26.236343    272.17599            0 
  462000       461998    99.891656    11.048205      2915857 0.0091362595    264.19415    1752.6867   -35.537479    24.880757    274.85087            0 
  462500       462498    99.922198    10.249944    2920623.8 0.0091213479     265.2055    1754.1531   -36.348199    25.726875    275.82683            0 
  463000       462998    99.963245    10.012382    2927059.6 0.0091012925    264.13095    1753.6902    -37.26371    26.060824    275.33384            0 
  463500       463498    100.24801    9.8426479    2940485.9  0.009059736    263.58507    1757.3876   -34.928648     24.48302     274.0307            0 
  464000       463998    100.23796    8.7249815    2942767.7 0.0090527111    261.08902    1754.7418   -38.383875     26.36895    273.10395            0 
  464500       464498    100.09233    11.019602    2932965.1 0.0090829671    263.61129    1755.0941    -37.24423    25.536914    275.31861            0 
  465000       464998    100.13585    10.940938    2924177.2 0.0091102639    261.15705    1753.2883   -39.310858     24.36221     276.1057            0 
  465500       465498    99.919214     10.61104    2921762.6 0.0091177928    261.24595    1750.1491   -38.334969    25.844577    273.73634            0 
  466000       465998     99.94028    9.8219529    2919735.6 0.0091241226    264.83562    1754.0527   -36.214915    26.092893    274.95764            0 
  466500       466498    99.863288    8.6786407    2927046.3 0.0091013339    265.43997    1753.5098   -37.280012    26.236138    276.48384            0 
  467000       466998    100.09863    8.4287107    2933312.9 0.0090818901    260.69119    1752.2678   -39.391992    25.359191    274.72399            0 
  467500       467498    99.865754    8.2085283    2943138.5 0.0090515706    266.70736    1754.8139   -36.985068    25.794308    277.89812            0 
  468000       467998    100.03477    7.9911829    2952423.2 0.0090231053    263.80967    1754.4348   -38.621864    26.745645    275.68589            0 
  468500       468498    99.816994    9.6613389    2954854.8 0.0090156803    263.06934    1750.4493   -39.720107    26.409177    276.38027            0 
  469000       468998    100.04268    9.4137693    2944258.1 0.0090481286    262.76998    1753.5129   -38.908998    26.164532    275.51445            0 
  469500       469498    100.07393    10.288261    2932458.8 0.0090845355    261.30365    1752.5123   -39.291251    25.637322    274.95758            0 
  470000       469998    99.984331    11.360199    2926773.3 0.0091021831    263.43576    1753.3092   -37.330178    25.504786    275.26116            0 
  470500       470498    99.863158    11.348495    2927167.4 0.0091009573    267.30571    1755.3736   -37.632913     26.60871    278.32991            0 
  471000       470998    100.05704    10.340915    2931819.8 0.0090865154    263.85788    1754.8148   -37.511822     25.55659    275.81312            0 
  471500       471498    100.10454    10.546021    2937051.1 0.0090703312    263.44553    1755.1102   -36.941263    25.370595     275.0162            0 
  472000       471998     99.89126    9.3634736    2944191.2 0.0090483342    270.13285    1758.6194   -32.810102    26.610828    276.33212            0 
  472500       472498    100.18778    9.0179591    2944585.5 0.0090471225    266.46659    1759.3717   -35.601506    26.437512    275.63058            0 
  473000       472998    100.05127    9.5298216    2946799.6  0.009040325     264.3105    1755.1814   -37.091419    25.809161    275.59276            0 
  473500       473498    99.903107    9.5511591      2955500 0.0090137121    269.04335    1757.7065   -34.805321    26.558934    277.28973            0 
  474000       473998    99.883632    10.429244    2953571.1 0.0090195986    270.10633    1758.4793   -32.745239    26.199101    276.65247            0 
  474500       474498    99.855274    10.248776    2955285.3 0.0090143668    268.65945    1756.6098   -33.170788    26.377285    275.45295            0 
  475000       474998     100.0783    9.2182711    2961065.4 0.0089967705    267.32815    1758.6019   -35.595184    25.984745    276.93859            0 
  475500       475498    100.18011    7.2542438    2969031.9 0.0089726304    264.86601    1757.6568   -38.223142     27.31709    275.77206            0 
  476000       475998    99.988724     7.203649    2983898.8 0.0089279254    265.54496    1755.4839   -36.320187    27.440433    274.42472            0 
  476500       476498    99.951836    8.2237731      2995741 0.0088926333    267.13572     1756.525   -34.686788    25.913839    275.90867            0 
  477000       476998    99.899627    10.262761    2996746.2 0.0088896505    263.87255    1752.4838    -40.06033    26.635695    277.29718            0 
  477500       477498    99.914531    11.207595    3002482.9 0.0088726653    265.52129    1754.3546   -39.388938    26.427962    278.48226            0 
  478000       477998    100.13174    10.969053    2997570.1 0.0088872071    263.14977    1755.2198   -40.284234    26.349102     277.0849            0 
  478500       478498    99.917178    11.946695      2995199 0.0088942425    263.14004    1752.0128   -41.306418    26.774341    277.67211            0 
  479000       478998    100.05338    12.288131    2992494.8 0.0089022797    262.61065    1753.5131   -38.975888    26.475446    275.11109            0 
  479500       479498    99.906401    13.010158      2984426 0.0089263483    264.49724    1753.2095   -40.338582    26.682943    278.15288            0 
  480000       479998    99.879605    10.798063    2968002.9 0.0089757413    266.91759    1755.2305   -38.632376    26.448117    279.10185            0 
  480500       480498    99.974257    9.7183608    2950599.5 0.0090286824    264.70122    1754.4246   -38.469517     26.57147    276.59927            0 
  481000       480998    99.769128    7.3561451      2952165 0.0090238946    265.87197    1752.5387   -36.163942    26.529697    275.50621            0 
  481500       481498    99.884233    5.5578195    2959581.6 0.0090012812    270.41857    1758.8005   -35.144916     28.37296    277.19052            0 
  482000       481998    100.00688    6.3196585    2966518.4 0.0089802328    270.02815    1760.2377    -35.28705     27.07593    278.23927            0 
  482500       482498    99.764313    8.6743286    2981067.2 0.0089364057    272.80645    1759.4014   -34.008996    26.453701    280.36174            0 
  483000       482998    100.02141    8.9554535      2986719 0.0089194952    266.56796    1756.9939   -35.435601    27.480674    274.52289            0 
  483500       483498     100.0816    9.8602509    2994528.3 0.0088962345    266.01917     1757.342   -37.548492    27.152137    276.41553            0 
  484000       483998    99.905978    11.330484    3000172.8 0.0088794972    270.98824    1759.6942   -35.234156    26.427884    279.79451            0 
  484500       484498    99.942205    11.416403    2998572.7 0.0088842354    272.34716    1761.5929   -34.647476     27.49484     279.4998            0 
  485000       484998    100.16079    11.177668    2993638.5 0.0088988786    267.74786    1760.2507   -37.837947    26.760312     278.8255            0 
  485500       485498    99.999523    11.539612    2990245.1 0.0089089775     264.2143    1754.3141    -39.02143    27.147548    276.08819            0 
  486000       485998    100.28955    11.880789      2979073 0.0089423878    258.69279    1753.1143   -44.522709    26.482018    276.73348            0 
  486500       486498    99.956932    13.218065    2976068.1 0.0089514167     266.0222    1755.4874    -39.55037    27.435197    278.13737            0 
  487000       486998    99.925563    13.075754    2976766.7 0.0089493159    272.12824     1761.126   -34.736102    27.582282    279.28206            0 
  487500       487498    100.02809    11.844269    2974906.9 0.0089549109    269.45702    1759.9825   -35.349141     26.85149    277.95467            0 
  488000       487998      99.7482    11.950944    2965125.9 0.0089844501    266.97384    1753.3287   -39.213528    26.975175    279.21219            0 
  488500       488498    99.904468    9.1658188    2969960.7 0.0089698244     267.5324    1756.2158   -38.074571    27.652195    277.95478            0 
  489000       488998     100.1064    6.6152588    2975555.2 0.0089529597    267.58142    1759.2738   -37.225851    27.587017    277.22025            0 
  489500       489498    99.860345     7.930048      2976381 0.0089504757    271.82578    1759.8517   -36.344612    28.282338    279.88805            0 
  490000       489998     99.95555    6.7583674    2985660.7 0.0089226568    271.30772    1760.7523   -35.163839    27.767952     278.7036            0 
  490500       490498    100.01021    5.4982704    2986933.2 0.0089188555    268.10469    1758.3638   -38.514291    27.846058    278.77293            0 
  491000       490998    100.11818    4.4764366    2986324.3 0.0089206741    267.93455    1759.8025   -38.671829    27.987589    278.61879            0 
  491500       491498    99.819637    3.8343196      2984846 0.0089250923    270.17529    1757.5946   -38.142542    27.936369    280.38147            0 
  492000       491998    99.987237    3.9393836    2982279.7 0.0089327725     269.9763    1759.8931   -36.378334    28.163441    278.19119            0 
  492500       492498    100.19097    6.7709056    2987989.3 0.0089157032    268.57147     1761.524   -35.835975     28.09945    276.30799            0 
  493000       492998    100.03559    9.2484322    2994448.3 0.0088964721    271.66611    1762.3033   -33.711242    26.868095    278.50926            0 
  493500       493498     99.98359    14.124189    2994851.5 0.0088952745    278.27865    1768.1411   -30.151271    27.269435    281.16049            0 
  494000       493998    99.962852    15.766571    2989269.7 0.0089118843    276.66907    1766.2225   -31.381807    28.588525    279.46235            0 
  494500       494498    100.21915    16.440094      2997735  0.008886718    269.57443    1762.9469   -33.910315    26.327453    277.15729            0 
  495000       494998    99.932919    16.024798    3016866.7 0.0088303622    271.50431    1760.6117   -33.296444    27.591975    277.20878            0 
  495500       495498    99.912703    14.739073    3027303.6 0.0087999189    276.74156    1765.5477   -31.829268    27.978563    280.59227            0 
  496000       495998    100.06099    14.314081    3025378.4 0.0088055186    272.40218    1763.4179    -34.44199    26.766826    280.07734            0 
  496500       496498    100.07619    11.866256      3031106 0.0087888797    273.69601    1764.9382   -31.952191    27.693651    277.95455            0 
  497000       496998    100.07689    9.7233626    3033893.2 0.0087808054    277.22614    1768.4789   -29.745083    27.990292    278.98094            0 
  497500       497498    100.27618     9.556948    3027505.4 0.0087993323     268.5162    1762.7386   -38.782567     27.29093    280.00783            0 
  498000       497998    99.872705     9.071191    3027331.1 0.0087998388    270.98002    1759.1901   -38.698656    27.720874     281.9578            0 
  498500       498498    99.809312    6.9858702    3031678.2 0.0087872208    272.96942    1760.2349   -35.768726    29.058641    279.67951            0 
  499000       498998    99.970882    5.1737841    3034344.4 0.0087794999    272.53374    1762.2068   -35.976773    28.578828    279.93169            0 
  499500       499498    99.926109    3.0352917    3030756.5 0.0087898931    268.77463    1757.7805   -39.188042    27.681142    280.28153            0 
  500000       499998    100.08002     2.020232    3040596.7 0.0087614467    267.18649    1758.4859    -41.48653    28.732652    279.94037            0 
  500500       500498    99.787493    3.5774676    3051393.6 0.0087304456    273.91169    1760.8521   -37.785729     28.64842      283.049            0 
  501000       500998    100.03813    5.1546848    3062258.2 0.0086994707     275.1241    1765.7992   -33.288577    28.125045    280.28763            0 
  501500       501498    100.07473    9.0179543    3067565.6 0.0086844194    275.26787    1766.4884   -33.242372    28.747849    279.76239            0 
  502000       501998    100.10587     13.53191    3070743.4 0.0086754322     272.8013    1764.4859   -35.033151    29.060569    278.77389            0 
  502500       502498    99.945043    16.254086    3079624.1 0.0086504149     276.3833    1765.6713    -34.61944    27.543922    283.45882            0 
  503000       502998    100.26646    16.015913    3072503.2 0.0086704632    272.71891    1766.7964   -33.973013     28.34932    278.34261            0 
  503500       503498    100.18686    17.019533    3056052.6 0.0087171359     271.9379    1764.8292   -35.521918    28.670879    278.78893            0 
  504000       503998    99.958414    17.095823    3044805.7 0.0087493354    270.41064    1759.8979   -39.059469     28.66904    280.80107            0 
  504500       504498    99.875028    15.025671    3040170.4 0.0087626752    276.24798    1764.4927   -32.559035    27.012748    281.79427            0 
  505000       504998    99.924371    11.447649    3046300.3 0.0087450426     274.7264    1763.7064   -35.206181    29.836769    280.09581            0 
  505500       505498    100.12015    8.4471706    3050602.7 0.0087327091    271.15613    1763.0534   -37.371825     28.81525    279.71271            0 
  506000       505998    99.906337    7.9680301    3062171.6 0.0086997169    270.56256    1759.2738   -40.567892    27.274532    283.85592            0 
  506500       506498    99.802306    6.7187091    3064670.7 0.0086926226    271.77573    1758.9368   -41.772167    30.098021    283.44987            0 
  507000       506998    99.924468     7.389321    3054828.4 0.0087206293    269.59116    1758.5726   -39.620794    29.304781    279.90718            0 
  507500       507498    99.974464    7.6900817    3040010.6 0.0087631357    277.54706    1767.2735   -31.709187    28.563036    280.69321            0 
  508000       507998    100.06478    8.5055089    3013355.2 0.0088406523    271.01997    1762.0921   -38.633768     29.23096    280.42278            0 
  508500       508498    99.905268    8.5936458    3012231.1 0.0088439517    274.59977    1763.2951   -37.584901    29.850807    282.33386            0 
  509000       508998    99.901095    8.7768357    3023018.2 0.0088123936    275.54921    1764.1824   -35.833254    28.768124    282.61434            0 
  509500       509498    100.26845    7.7798541    3030186.7  0.008791546     270.7091    1764.8163   -38.568983    28.088473    281.18961            0 
  510000       509998    100.18579    8.7176822    3035782.1 0.0087753419    266.04934    1758.9248   -41.555931    29.055958    278.54931            0 
  510500       510498     99.76778    11.077782    3044044.5 0.0087515233    272.83792    1759.4845   -39.694658    29.111133    283.42144            0 
  511000       510998    99.760779    11.910567    3051167.3 0.0087310933    282.48403    1769.0263   -32.502071    29.010205     285.9759            0 
  511500       511498    100.12187    9.7652088    3042325.5 0.0087564679    277.78986    1769.7128   -33.049545    28.817822    282.02158            0 
  512000       511998    100.03527    11.250139    3038927.6 0.0087662589    278.66027    1769.2928   -31.173822    28.233417    281.60068            0 
  512500       512498     100.2271    10.487916    3042158.9 0.0087569477     276.4437    1769.9347   -33.746492    28.653591     281.5366            0 
  513000       512998     99.96614    10.777089    3043381.5 0.0087534297    275.19634    1764.7987   -36.459709    29.864838    281.79122            0 
  513500       513498    99.961664    10.293635    3046438.5 0.0087446459     277.2209    1766.7566   -34.804895    28.652855    283.37294            0 
  514000       513998     100.1082     9.541784    3042297.5 0.0087565485    274.96819    1766.6874   -35.776497    29.833185     280.9115            0 
  514500       514498    99.749297     11.47826    3035362.2 0.0087765559    277.10959    1763.4808   -37.296375    28.454153    285.95182            0 
  515000       514998    100.22154    9.0671532    3036296.3 0.0087738558    271.05518    1764.4633   -37.124724    29.244535    278.93536            0 
  515500       515498    100.11912    8.1878334    3030805.7 0.0087897506    272.06665    1763.9486   -38.154734     30.26971    279.95168            0 
  516000       515998    99.842915    8.7956799    3026764.9  0.008801485    278.10266    1765.8689   -36.588062    28.491015    286.19971            0 
  516500       516498    99.993245    7.0252051    3033436.3 0.0087821281      273.706    1763.7123   -38.487278    30.299315    281.89397            0 
  517000       516998    99.804832    7.0496483    3045180.4 0.0087482586     276.7366    1763.9353   -33.984899    30.405941    280.31556            0 
  517500       517498    100.01524    8.7714502      3048515 0.0087386894    273.75247    1764.0865   -39.137003    28.767009    284.12246            0 
  518000       517998    100.00483    10.179378      3057434 0.0087131973    279.67117      1769.85   -32.443276    29.317768    282.79667            0 
  518500       518498    99.922632    12.127908    3056587.1 0.0087156115    277.22302    1766.1771    -33.02278    28.781553    281.46424            0 
  519000       518998    99.916247    13.745192    3061162.1 0.0087025858    281.38235    1770.2413   -30.450516    29.999854    281.83301            0 
  519500       519498    100.13005    13.798301    3057601.2 0.0087127209    272.77617     1764.821   -38.693525    29.376219    282.09348            0 
  520000       519998    99.949556    13.702529      3066416 0.0086876751    279.76485    1769.1201   -34.795804    30.436161    284.12449            0 
  520500       520498    100.01167    9.8929589    3074601.5 0.0086645459    273.65269    1763.9335   -37.940479    29.085317    282.50786            0 
  521000       520998    100.16886    7.4575428    3073251.3 0.0086683527     276.4544    1769.0775   -32.726587    28.992433    280.18856            0 
  521500       521498    100.02739    7.4202305    3065657.1 0.0086898257    277.21475    1767.7299   -35.776244    31.118732    281.87226            0 
  522000       521998    100.01589    5.9801425    3068870.9 0.0086807256    276.77768    1767.1214   -34.907323     29.99643    281.68858            0 
  522500       522498    99.766814    7.7145696      3063873 0.0086948858    285.75134    1772.3836   -31.575563    31.660568    285.66633            0 
  523000       522998    99.799409    9.3219158      3047439 0.0087417749    281.22116    1768.3391   -34.350868     29.69539    285.87664            0 
  523500       523498    100.03175    9.2218138    3040110.6 0.0087628476    278.07031    1768.6504   -33.207112    29.709045    281.56838            0 
  524000       523998    100.23685    9.9205758    3035218.8 0.0087769704    273.06093    1766.6971   -37.172512    30.855678    279.37776            0 
  524500       524498    99.925963     13.83978    3030630.8 0.0087902577    274.18687    1763.1906   -40.455959    28.904994    285.73783            0 
  525000       524998    100.00539    15.263575    3029179.7 0.0087944687    277.12749    1767.3147   -33.698035    28.720853    282.10468            0 
  525500       525498    100.12355    16.021259    3029792.2 0.0087926908     275.0584    1767.0063    -36.60792    30.573633    281.09269            0 
  526000       525998    100.02077    15.351025    3037766.9 0.0087696082    278.74798    1769.1645    -34.07103    30.418483    282.40053            0 
  526500       526498    100.01132    14.157736    3054488.1 0.0087216008    280.74807    1771.0237   -32.505203    29.252376     284.0009            0 
  527000       526998    100.07186    12.028376    3060186.6   0.00870536    279.37115    1770.5488   -33.102142    29.272483    283.20081            0 
  527500       527498    100.17358    9.4192608    3054066.3 0.0087228052    277.68327    1770.3768   -34.926024    31.371394     281.2379            0 
  528000       527998    99.990222    7.4426952    3052934.2 0.0087260401    280.26792    1770.2292   -33.015834     30.66727    282.61648            0 
  528500       528498    99.821011    8.3322536    3044541.9 0.0087500933    284.78442    1772.2242   -29.207823    29.148767    284.84348            0 
  529000       528998    99.779803    6.9562394    3044158.7 0.0087511948    282.57657    1769.4023    -33.67363    31.108003     285.1422            0 
  529500       529498     100.1903    6.6305937      3049100  0.008737013    279.92687    1772.8696   -33.690577    30.910066    282.70738            0 
  530000       529998    100.36493    6.5635485    3046805.3 0.0087435933    276.64792    1772.1927   -34.504731    30.140462    281.01219            0 
  530500       530498    99.834714    8.4259491    3044685.7   0.00874968    283.05861    1770.7026    -33.30101    30.824631    285.53499            0 
  531000       530998    99.953276    8.4187922      3035767 0.0087753856    281.83225     1771.243    -31.85688    30.496642    283.19249            0 
  531500       531498    100.17947    8.9042682    3028484.3  0.008796488    280.60685    1773.3882   -32.838955    30.361883    283.08392            0 
  532000       531998    100.08923     9.722892    3029019.4 0.0087949341    278.98514    1770.4217   -34.269721    30.805162     282.4497            0 
  532500       532498    99.990294     11.66347    3027830.5 0.0087983874    282.01211    1771.9744   -32.271031    29.843825    284.43932            0 
  533000       532998    99.685483    12.830528    3029545.4  0.008793407    282.97001    1768.3903   -33.095097    30.483627    285.58148            0 
  533500       533498    100.10508    11.245377    3033829.6 0.0087809896    282.02543    1773.6982    -30.55375    31.466884    281.11229            0 
  534000       533998    100.28522    10.815665    3032191.8 0.0087857325    275.37112    1769.7281   -37.806925    30.313891    282.86416            0 
  534500       534498     99.94032    11.306285    3038077.1 0.0087687129    279.14014    1768.3578   -38.091793      30.2386    286.99333            0 
  535000       534998    99.826816    10.614639    3044283.1 0.0087508372    282.54233    1770.0687   -34.755207     30.65143    286.64611            0 
  535500       535498    100.08426    8.7456388    3039935.8 0.0087633515     282.3725    1773.7351   -31.208717    30.709248    282.87197            0 
  536000       535998    100.02115    8.7801717    3034658.2 0.0087785918    282.44231    1772.8644    -32.49442    30.786011    284.15072            0 
  536500       536498    100.06719    7.3074636    3033069.3 0.0087831907    282.64331    1773.7514   -34.731151    31.044806    286.32966            0 
  537000       536998    99.715029    8.5145377    3027482.3 0.0087993993    281.65296    1767.5135   -35.403642    30.437497     286.6191            0 
  537500       537498    100.00299    7.9975689    3021386.7  0.008817152    279.85877    1770.0102   -34.721856    29.748817     284.8318            0 
  538000       537998    100.24468    8.7758434    3008073.7 0.0088561745    281.20188    1774.9548   -34.148338    31.978768    283.37145            0 
  538500       538498    100.09981    11.597341    2998615.9 0.0088841075    280.65612    1772.2504   -34.723639    30.120386    285.25937            0 
  539000       538998    100.02897     12.58768    2994680.8 0.0088957815    278.88263    1769.4213   -36.906436    30.675152    285.11392            0 
  539500       539498     99.64874    13.583921    2991597.5   0.00890495    282.64433    1767.5171   -35.417412    32.450851    285.61089            0 
  540000       539998    100.23149    10.516658    2998286.4 0.0088850839    273.30848    1766.8649   -38.664208    30.616299    281.35639            0 
  540500       540498      100.191    11.084552    2999420.6  0.008881724    277.41138    1770.3644   -38.823315    30.574919    285.65978            0 
  541000       540998    100.11166    10.037852    3002503.2 0.0088726053     280.1557    1771.9265   -35.942284    31.863868    284.23412            0 
  541500       541498    100.09415    11.364034    2994137.4 0.0088973959    279.94977    1771.4596   -37.237112     30.47495    286.71193            0 
  542000       541998    99.981477    10.678693    2981993.7 0.0089336291    277.52953    1767.3605   -38.510772    30.549788    285.49051            0 
  542500       542498     99.95802    9.7440539    2979229.5 0.0089419179     277.9386      1767.42   -38.948739    30.984173    285.90316            0 
  543000       542998    100.05541    8.3510713    2985710.1 0.0089225094    278.89645    1769.8291   -38.571774    30.883826     286.5844            0 
  543500       543498    100.02713    7.6836298    2992460.7 0.0089023812    275.83752    1766.3487   -39.020886    31.727258    283.13115            0 
  544000       543998    99.899862    7.3402341    2995140.9 0.0088944148    275.07036    1763.6851   -41.269086    30.807946     285.5315            0 
  544500       544498    99.864948    7.3535359    2990380.5  0.008908574    280.05581    1768.1503   -39.551577    31.445939    288.16145            0 
  545000       544998    99.845941    7.9918649    2973258.3  0.008959876    277.26855    1765.0799   -40.491646    32.408437    285.35176            0 
  545500       545498    100.05937    7.9058083    2967685.2 0.0089767022    277.21523    1768.2068    -36.90557     30.88231    283.23849            0 
  546000       545998    100.04429    7.0001711    2966231.9 0.0089811003    281.85027    1772.6172   -33.817524     31.89043    283.77736            0 
  546500       546498    99.955142    9.6583473    2965595.8 0.0089830265    281.54114    1770.9797   -37.248917    30.843427    287.94663            0 
  547000       546998    100.06112    11.834466    2965334.2  0.008983819    274.47693    1765.4946   -43.159033    30.664301    286.97166            0 
  547500       547498    99.901109    13.608036    2972334.8 0.0089626599    278.49683    1767.1302   -40.564828    32.090959     286.9707            0 
  548000       547998    100.19266    14.638067    2972252.4 0.0089629083    275.38706    1768.3649    -40.52005    31.383132    284.52398            0 
  548500       548498    100.01467    13.929174    2976137.7 0.0089512075     276.0833    1766.4088   -39.906665    30.573358    285.41661            0 
  549000       548998    99.886153    15.042279    2983514.3 0.0089290761    281.34867    1769.7592   -37.848349    31.761368    287.43565            0 
  549500       549498    100.02835    12.094038    2989228.1 0.0089120085    275.56754    1766.0969   -42.654377    30.744169    287.47774            0 
  550000       549998    99.863319    10.129024    2994715.2 0.0088956793    278.13597    1766.2062   -40.743751    32.401588    286.47814            0 
  550500       550498    100.14479    9.2702482    2994280.5 0.0088969706    275.03603    1767.3005   -43.364424    31.418707    286.98174            0 
  551000       550998    100.02262    7.7704005    3001779.6 0.0088747442    275.80999     1766.254   -40.476252    32.121456    284.16479            0 
  551500       551498    99.977036    7.3564935    2999272.8 0.0088821616    282.53364    1772.2984    -37.19442    31.990423    287.73763            0 
  552000       551998    99.833061    8.4413434    2988208.8 0.0089150484    282.58211    1770.2015   -36.170812    30.358219     288.3947            0 
  552500       552498    100.06218    7.1820023    2978928.6 0.0089428213    283.67498    1774.7085   -34.131271    31.698012    286.10824            0 
  553000       552998    100.16242      6.73336      2972008 0.0089636454    281.42584     1773.953   -36.027315    32.610898    284.84226            0 
  553500       553498     99.82482    8.0215774    2974499.4 0.0089561376    286.98451    1774.4811   -35.133391    32.670806    289.44709            0 
  554000       553998    100.11526    8.1325689    2974118.9 0.0089572833    281.34125    1773.1656    -38.09049    31.659091    287.77265            0 
  554500       554498    100.32585    8.6579856    2973458.8 0.0089592718    270.49944    1765.4618   -43.762408    30.723663    283.53818            0 
  555000       554998    99.959255    10.485946    2971008.6 0.0089666605    280.80246    1770.3023   -37.594432    32.224929    286.17196            0 
  555500       555498    99.903986    11.381566    2966810.4 0.0089793489     284.0215    1772.6977   -36.442849    31.643444    288.82091            0 
  556000       555998    99.878782    12.229656    2953025.3 0.0090212657     289.2172    1777.5179   -30.253766    32.338284    287.13268            0 
  556500       556498    100.10871    11.016447    2948252.7 0.0090358692    280.09845    1771.8253   -38.133583    32.680042    285.55199            0 
  557000       556998    100.32267     10.37229    2951538.4 0.0090258103    281.26823    1776.1834   -34.438638    30.358095    285.34878            0 
  557500       557498    99.964926    10.810808    2951127.2 0.0090270679    283.95601    1773.5403   -34.973559     32.75719    286.17238            0 
  558000       557998    100.07452    10.647856    2956632.7 0.0090102588    283.85781    1775.0752   -36.792423    33.042131     287.6081            0 
  558500       558498    99.814079    10.954182    2969442.5 0.0089713898    285.70216    1773.0387   -34.643631    31.202425    289.14336            0 
  559000       558998     99.68928    10.691199    2974081.4 0.0089573964    290.68004    1776.1569   -32.751135    32.300628    291.13055            0 
  559500       559498    99.890097    9.3218061    2977954.4 0.0089457466    288.88851    1777.3578   -32.928708    33.066601    288.75062            0 
  560000       559998    100.12587    7.5384313    2979947.6 0.0089397632    283.92139     1775.904    -34.44925    31.585022    286.78561            0 
  560500       560498    100.42233    6.2415642    2979826.4 0.0089401269    279.80502    1776.2051   -36.964386    32.716633    284.05277            0 
  561000       560998    100.03484    9.8496726    2978716.2 0.0089434589    282.40191    1773.0281   -37.456233    32.244905    287.61324            0 
  561500       561498    99.937945     12.45521    2982604.2 0.0089318004    286.23459    1775.4168   -38.198758    31.444736    292.98861            0 
  562000       561998    99.735282    13.222214    2988063.8 0.0089154809    287.64569    1773.8081   -38.354576    33.688587    292.31168            0 
  562500       562498    99.957081    11.258341    2999116.8 0.0088826235    286.84946    1776.3169   -32.953236    31.833241    287.96945            0 
  563000       562998    100.42979    9.0260126    3004068.5 0.0088679823    286.59024    1783.1015   -29.579306    32.204499    283.96505            0 
  563500       563498    100.03026    11.169082    2998040.8 0.0088858117     287.1714    1777.7292   -32.745243    32.284904    287.63174            0 
  564000       563998    99.980978    11.130822    2992072.2 0.0089035372    286.63305    1776.4566   -37.950229    32.574871    292.00841            0 
  564500       564498    99.840142    12.085539    2981921.3 0.0089338461    290.62248    1778.3474   -34.186593     32.77046    292.03861            0 
  565000       564998    100.05839      11.9635    2970796.2 0.0089673017    285.64596     1776.623   -34.978034    32.674407    287.94959            0 
  565500       565498    100.48592    10.617009    2959878.1 0.0090003795    276.72701    1774.0747    -39.03544    31.728203    284.03425            0 
  566000       565998    99.780817    11.222725    2947312.8 0.0090387508    283.86785    1770.7087   -42.073685    32.749252    293.19228            0 
  566500       566498    100.15006    8.5113565    2936462.9 0.0090721481    279.07075    1771.4138   -43.030011    31.932922    290.16784            0 
  567000       566998    100.10097    8.6812734    2927769.2 0.0090990869    282.16801    1773.7796   -36.141344     32.63307    285.67629            0 
  567500       567498    100.05929    11.099393    2917993.2  0.009129571     283.0245    1774.0149   -38.223351     32.65133    288.59652            0 
  568000       567998     100.1759     11.41544    2919169.1 0.0091258933    284.62779    1777.3558   -36.981341    31.947371    289.66176            0 
  568500       568498    100.04039    10.531593    2920960.4 0.0091202969     284.6008    1775.3097   -36.543263    33.662217    287.48185            0 
  569000       568998    99.908338    11.534004    2923187.2 0.0091133492    289.03394     1777.775   -34.867011    32.942803    290.95815            0 
  569500       569498      100.077    11.349502    2915400.4 0.0091376903    286.02119    1777.2756    -35.57592    31.672098    289.92501            0 
  570000       569998    100.10579    10.795348    2900911.4 0.0091833296    280.46815    1772.1515   -41.303574    33.062651    288.70908            0 
  570500       570498    100.07594    10.217685    2898540.8 0.0091908404    283.85378    1775.0924   -37.510447    32.885253    288.47897            0 
  571000       570998    99.968561    11.102355    2894635.6 0.0092032399    284.62777    1774.2662    -38.39487     32.52889    290.49375            0 
  571500       571498    100.03116    9.1399007    2901665.8 0.0091809422    281.61798    1772.1893   -38.852335    31.931679    288.53863            0 
  572000       571998     99.84423    8.4246274    2910437.3 0.0091532725     286.1094    1773.8952   -37.102368    34.416518    288.79525            0 
  572500       572498    100.05919    8.6764611    2909397.8  0.009156543    277.46106    1768.4499   -43.664599    32.531915    288.59375            0 
  573000       572998    100.05782    9.0214589    2905782.3  0.009167936    283.22791    1774.1965   -41.323078    32.415829    292.13516            0 
  573500       573498    100.11737     9.281173    2899208.4 0.0091887242    283.22347    1775.0793   -38.812774    33.146059    288.89018            0 
  574000       573998    100.10383    12.395305    2892218.3 0.0092109318    285.90521    1777.5593   -36.354135    32.298835    289.96051            0 
  574500       574498    100.02309    12.911339    2890001.8 0.0092179962    281.89498    1772.3459   -40.128751    32.009988    290.01374            0 
  575000       574998     100.1354    13.257692    2888207.2  0.009223724    283.43707    1775.5617   -39.119593    32.481006    290.07566            0 
  575500       575498    100.03513    13.968947    2888885.3 0.0092215589    281.16057     1771.791   -41.152362    33.831906    288.48102            0 
  576000       575998    99.856001    13.524781      2887659 0.0092254751    285.05532    1773.0165     -41.0018    32.190549    293.86658            0 
  576500       576498    100.12901     11.34408    2887692.3 0.0092253687    283.33548    1775.3649   -40.313134    32.583458    291.06515            0 
  577000       576998    99.912244     9.042988    2894776.1 0.0092027933    283.84955    1772.6488   -37.252341    33.971108    287.13078            0 
  577500       577498    100.12389    10.164756    2905044.2 0.0091702652    283.25479    1775.2079   -38.629129    32.409272    289.47465            0 
  578000       577998    99.810535     9.881724    2917370.6 0.0091315192    288.20095    1775.4847   -34.482387    34.131496    288.55184            0 
  578500       578498    99.878106    11.785002    2927907.2  0.009098658    289.89635    1778.1869   -35.882579    32.672232    293.10669            0 
  579000       578998    99.939181    12.032637    2935747.3 0.0090743593    288.90561    1778.1063   -33.976821    33.445716    289.43672            0 
  579500       579498    99.993663    11.562728    2938876.7 0.0090646967    288.06845     1778.081   -36.907031    34.288724    290.68675            0 
  580000       579998    99.881204    10.364214    2942360.6 0.0090539636    287.84433    1776.1811   -37.132121    33.436465    291.53998            0 
  580500       580498    99.970085    9.5812989    2944066.4 0.0090487178    287.38053    1777.0417   -37.390231    33.158378    291.61238            0 
  581000       580998    100.14324    9.4772728    2932483.4 0.0090844592    286.69744    1778.9389   -36.637345    33.455791      289.879            0 
  581500       581498    99.990393    9.7361309    2929138.8 0.0090948323    288.18862    1778.1524    -35.34384    33.572776    289.95969            0 
  582000       581998    100.01316    8.9921908    2923956.4  0.009110952    284.49082    1774.7939   -39.950769     33.25171    291.18988            0 
  582500       582498    99.971296    8.4257996    2929034.3 0.0090951567    288.54987    1778.2291    -36.44214    34.457889    290.53412            0 
  583000       582998    99.802012    10.286523    2936957.1 0.0090706215     293.2004    1780.3571   -33.242344    33.854421    292.58833            0 
  583500       583498    100.12309    9.1755267    2941026.9 0.0090580694    286.30852    1778.2497   -38.511548    33.660313    291.15976            0 
  584000       583998    99.975228    8.4588001    2944702.3 0.0090467638    286.89299    1776.6308   -37.647462    34.140038    290.40041            0 
  584500       584498    100.03302    9.4777333      2932608 0.0090840733    284.54194    1775.1409   -40.726396    33.360466    291.90787            0 
  585000       584998    100.06874    9.9838241    2915268.3 0.0091381043    289.55952    1780.6908    -35.78608    33.587396    291.75821            0 
  585500       585498      100.044    11.720809      2898265 0.0091917151    289.60123    1780.3637   -36.207511    34.685363    291.12338            0 
  586000       585998    99.921218    13.151485    2886906.6 0.0092278795    289.42385    1778.3569   -36.539077    33.829851    292.13307            0 
  586500       586498    99.939651    13.940825    2877450.9 0.0092582034    289.92522    1779.1329   -34.246302     33.23082     290.9407            0 
  587000       586998     100.0092    12.283094    2874549.8 0.0092675473    288.65315    1778.8972   -37.766474    33.891129     292.5285            0 
  587500       587498     100.1554    9.4854896    2870748.8 0.0092798178    284.58451    1777.0071    -38.56016    33.123356    290.02131            0 
  588000       587998    100.00411    9.9368361    2880543.8 0.0092482627    288.79536    1778.9636    -37.32934    34.343271    291.78143            0 
  588500       588498    99.875582    9.0253363    2888779.3 0.0092218971    288.56057    1776.8136   -37.853376    34.753913    291.66004            0 
  589000       588998    100.19573    7.5501718    2887442.2 0.0092261676    281.04523    1774.0687   -44.138193    33.882213    291.30121            0 
  589500       589498     99.93687    8.3733238    2886796.5 0.0092282312     287.7894    1776.9556   -37.943087    33.259508    292.47298            0 
  590000       589998    100.25307    9.6553642    2878254.1 0.0092556198    283.50687    1777.3848   -41.134345    34.246059    290.39516            0 
  590500       590498    100.06892    10.788586    2875219.3 0.0092653891    287.63759    1778.7716   -37.212728    34.371627    290.47869            0 
  591000       590998    99.865556    13.098976    2874748.6 0.0092669063    286.95634    1775.0599   -38.074919    33.419491    291.61177            0 
  591500       591498    99.915515    11.669451    2877839.1 0.0092569547    288.36628    1777.2143   -39.881166    33.868886    294.37856            0 
  592000       591998    100.14746    10.238449    2872518.7 0.0092741001    282.20163    1774.5059   -42.152064    33.637184    290.71651            0 
  592500       592498    100.04916     8.406322      2873700 0.0092702876     288.1237    1778.9632   -36.179089    34.223066    290.07972            0 
  593000       592998    100.09441    7.7992027    2877289.1  0.009258724    286.29544    1777.8092   -39.902347    34.339654    291.85813            0 
  593500       593498    99.958096    7.9256352    2887257.4 0.0092267582    284.57324    1774.0558   -42.574828    33.900446    293.24762            0 
  594000       593998    99.751193    9.3055157      2890169 0.0092174631    293.95263    1780.3521   -34.252725    35.245665    292.95969            0 
  594500       594498    100.18131    9.5128829    2895196.9 0.0092014555    283.88284    1776.6914   -39.529508    34.049374    289.36298            0 
  595000       594998    100.06418    8.7191644    2897964.3 0.0091926687    286.38043    1777.4437   -40.497031    34.841537    292.03593            0 
  595500       595498    99.810807    11.569425    2899139.2 0.0091889432    290.56782    1777.8556    -39.26566    34.231543    295.60194            0 
  596000       595998    100.09444    11.039145    2889671.7 0.0092190494     283.6575    1775.1716   -42.909732    33.784844    292.78239            0 
  596500       596498     99.81781    12.417136    2887191.8 0.0092269677    285.02565    1772.4178   -41.690821    34.649426    292.06704            0 
  597000       596998     100.1726    9.0965895    2890641.1 0.0092159577    281.50863    1774.1874   -43.736937    34.119633    291.12593            0 
  597500       597498    100.25052    8.1075526    2886435.2 0.0092293865    282.79603     1776.636   -41.376705    34.885746    289.28699            0 
  598000       597998      99.6083    10.113467    2889133.2 0.0092207676    288.14833    1772.4185   -41.064969    35.371742    293.84155            0 
  598500       598498    99.697439    10.381563    2910441.5 0.0091532592    288.30361    1773.9021   -41.453824    34.624587    295.13284            0 
  599000       598998    100.26452    8.8003309    2926727.2 0.0091023263    287.07941     1781.128   -36.600478    34.344187     289.3357            0 
  599500       599498    100.28461    9.6198313      2936336 0.0090725402    284.56692    1778.9148   -38.424072    34.096179    288.89481            0 
  600000       599998       99.576    11.771643      2948893 0.0090339073    291.04454    1774.8334   -40.761601    35.342427    296.46371            0 
  600500       600498    99.551921    11.859054    2955344.8 0.0090141855    299.42782    1782.8579    -34.94794    35.423917    298.95185            0 
  601000       600998    100.13515    8.6658357    2952780.3 0.0090220144    292.40794    1784.5288   -34.253672    34.585088    292.07653            0 
  601500       601498     100.1477    8.0824999    2957238.7 0.0090084125    290.03693    1782.3448   -36.473533    36.092779    290.41768            0 
  602000       601998    99.909286    8.1760872    2963647.1 0.0089889334    290.33811    1779.0933    -35.56552     33.62732    292.27631            0 
  602500       602498    100.13063    8.1694597      2964331 0.0089868595     288.0178    1780.0712   -40.025841    33.800713    294.24292            0 
  603000       602998    99.729344     6.787578    2966984.9 0.0089788207    290.72313     1776.797   -42.735278     36.18326    297.27514            0 
  603500       603498    100.13483    8.2118945    2968797.9 0.0089733377    280.72317    1772.8392   -46.815972    33.654653    293.88449            0 
  604000       603998    100.03833    9.8664202    2977718.8 0.0089464545    286.20821    1776.8864   -40.332231    34.813916    291.72653            0 
  604500       604498     99.87066    10.002816    2975051.5 0.0089544756    289.14076    1777.3204    -39.15306    35.631254    292.66257            0 
  605000       604998    99.871459     11.56262    2971436.6 0.0089653691    285.48507    1773.6766   -43.886773     35.26277    294.10908            0 
  605500       605498    100.04209    12.499772    2971322.4 0.0089657138    284.54304    1775.2772   -43.272413    34.553804    293.26165            0 
  606000       605998    100.05054    12.400222    2964299.3 0.0089869554    285.65637    1776.5164   -41.848216     34.41653    293.08805            0 
  606500       606498    100.35221    13.755115      2953138 0.0090209215    282.69204    1778.0473   -43.017063    35.189525    290.51958            0 
  607000       606998    99.766652    16.650131    2950952.8 0.0090276015    291.89861    1778.5284   -38.097344    34.161646    295.83431            0 
  607500       607498    100.16633    15.165528    2952562.3 0.0090226802    286.60009    1779.1856   -42.131842    35.475309    293.25662            0 
  608000       607998    100.02491     11.23368    2955526.1 0.0090136323    288.62471    1779.1028   -40.440342     36.20679    292.85826            0 
  608500       608498    99.950163    9.2690472    2954539.1 0.0090166434    288.86241    1778.2267   -39.471902    35.635324    292.69898            0 
  609000       608998     100.0349    6.6772745    2954799.8  0.009015848    290.63755    1781.2645   -39.789579     37.03201    293.39511            0 
  609500       609498    99.868571    5.1235561    2963199.9 0.0089902897    290.50465    1778.6532   -38.950194    34.765936    294.68891            0 
  610000       609998    99.701328    5.1191845    2972270.8 0.0089628529    296.56092    1782.2173   -36.582371    35.694059    297.44924            0 
  610500       610498    99.741253    5.7764366    2974323.9 0.0089566661    295.38567     1781.637    -35.93126    36.126588    295.19034            0 
  611000       610998    100.17164    6.5862989    2971689.4 0.0089646063    290.13684    1782.8014   -37.620802    35.923676    291.83396            0 
  611500       611498    100.28633    8.9258564    2957581.8 0.0090073674    287.69996    1782.0735    -39.74228    35.419679    292.02256            0 
  612000       611998     99.75024    9.9827648    2955703.8 0.0090130904    297.26939    1783.6546   -34.634472    35.877619    296.02625            0 
  612500       612498    99.972952    8.4530023    2959488.3  0.009001565    293.27881    1782.9827   -37.911725    35.987199    295.20333            0 
  613000       612998    99.837646    10.317297    2967690.9 0.0089766847    300.31107    1787.9988   -31.608424     35.00455    296.91495            0 
  613500       613498    100.23491    10.791189    2970198.5 0.0089691061    293.71154    1787.3189   -34.963669    35.872621    292.80259            0 
  614000       613998    99.869357    12.542654    2981020.1 0.0089365467    294.59469    1782.7549   -37.120919    36.615715    295.09989            0 
  614500       614498    100.01157    12.470209    2983920.6 0.0089278601    292.66139    1782.9407   -37.755275    35.371801    295.04487            0 
  615000       614998    99.860706    12.122252    2978590.3  0.008943837    293.36844    1781.3997   -36.316927    36.190175    293.49519            0 
  615500       615498    100.02689    12.064192    2985051.4 0.0089244782    292.38091    1782.8886   -37.212135    35.254256    294.33878            0 
  616000       615998    99.779574    11.385062    2983365.5 0.0089295212    299.10663     1785.929   -33.284169    36.018099     296.3727            0 
  616500       616498    100.17522    11.098055    2983698.9 0.0089285236    297.11791    1789.8358   -31.441789    35.478126    293.08157            0 
  617000       616998    99.984306    11.083284    2979431.2 0.0089413125    295.08911    1784.9622   -37.086346    35.763369    296.41209            0 
  617500       617498    99.919414     8.014893    2983357.6  0.008929545    298.09405    1787.0002   -33.865677     37.95515    294.00458            0 
  618000       617998    100.40795    6.2428774    2974196.6 0.0089570495    287.01832    1783.2042   -40.139344     35.20507    291.95259            0 
  618500       618498    99.992614    7.0130877    2967221.3 0.0089781054    295.73691    1785.7338   -34.128969    36.268327    293.59756            0 
  619000       618998     99.84014    10.365123    2959721.2 0.0090008565    296.52091    1784.2458    -36.65648    35.797201    297.38019            0 
  619500       619498    99.872711    11.213755    2961002.9 0.0089969605    291.35739    1779.5676   -39.496762    36.573648     294.2805            0 
  620000       619998    99.946247    12.815073    2972190.1 0.0089630963    293.16158    1782.4676   -39.448787     36.50001    296.11036            0 
  620500       620498    100.14132     10.66932    2988261.1 0.0089148923    288.33151    1780.5442   -38.655584    35.709859    291.27723            0 
  621000       620998    99.939036      11.0853    2999895.1 0.0088803191     295.8986    1785.0971   -37.678551    37.232041    296.34511            0 
  621500       621498    99.931318    8.4435656    3000293.9 0.0088791389    294.12391    1783.2074   -39.663486    37.138059    296.64934            0 
  622000       621998    99.908823    6.5661081    2997230.3 0.0088882145    291.99295    1780.7413   -40.804239    35.558515    297.23868            0 
  622500       622498    99.959612    6.3710448    2995333.6 0.0088938427    296.55145    1786.0566   -36.779772    36.564159    296.76707            0 
  623000       622998    100.00409    7.4248777    2986868.7 0.0089190482    295.00824    1785.1761   -37.524304    36.896805    295.63574            0 
  623500       623498    100.05993    8.5312272    2973522.5   0.00895908     291.2145    1782.2144   -39.626737    35.690899    295.15034            0 
  624000       623998    100.08018    10.023112    2971782.2 0.0089643265     290.3877    1781.6894   -42.162943    35.929693    296.62095            0 
  624500       624498    99.657038    11.666479    2972168.8 0.0089631605    297.35709    1782.3535   -36.892245    37.048986    297.20034            0 
  625000       624998    100.06147    11.081038    2975268.4 0.0089538227    297.70081    1788.7237   -33.715038    37.555532    293.86031            0 
  625500       625498    100.34289    10.674991    2975591.1 0.0089528516    291.48314    1786.6995   -38.556272    36.805148    293.23427            0 
  626000       625998    99.814772    12.135067    2967407.2  0.008977543    297.65511    1785.0019   -38.565744    36.140251     300.0806            0 
  626500       626498    99.879404    10.482394    2957466.1 0.0090077197     295.5301      1783.84   -40.354139    37.881361    298.00288            0 
  627000       626998    99.845839    9.4585326    2946639.8 0.0090408151    294.12707    1781.9369   -38.735142    38.431912     294.4303            0 
  627500       627498    100.25249    9.3341868    2942227.9 0.0090543719    286.48148    1780.3507    -42.74728    35.039364     294.1894            0 
  628000       627998     99.83549    10.745242    2930278.2 0.0090912957    294.58079    1782.2364   -42.547315    37.567616    299.56049            0 
  628500       628498    99.659555    9.8498268    2926008.1 0.0091045633    293.59933    1778.6333   -41.033509    37.928577    296.70426            0 
  629000       628998    100.25076    11.281823    2924545.3 0.0091091174    288.24592    1782.0895   -43.416247    35.522854    296.13931            0 
  629500       629498    100.24666    12.600947    2921931.1 0.0091172669    287.61923    1781.4017    -43.40021    36.150196    294.86924            0 
  630000       629998     100.2204    11.181602    2924956.4 0.0091078369    282.83198    1776.2232   -46.416743    36.686134    292.56259            0 
  630500       630498     100.0027     10.70613    2926101.8 0.0091042717    290.61236    1780.7596    -42.67398    36.585531    296.70081            0 
  631000       630998    99.994687    10.823702    2913754.1 0.0091428532    289.76378    1779.7916   -44.323195    35.953209    298.13377            0 
  631500       631498    99.800125     11.55292    2906858.4  0.009164542    294.13141      1781.26   -42.071852    37.385386    298.81788            0 
  632000       631998    100.11282    12.118029    2897099.1 0.0091954141     288.2718    1780.0598   -44.710187    35.818172    297.16381            0 
  632500       632498    100.26489    11.320319    2888717.8 0.0092220937    286.73962    1780.7938   -40.137064    36.391293    290.48539            0 
  633000       632998    99.967131    10.315051    2878088.6 0.0092561521    289.13431    1778.7515   -43.949743    36.738442    296.34561            0 
  633500       633498    99.805113    9.5239991    2871745.1 0.0092765985    290.32717    1777.5301   -46.771599    36.517419    300.58135            0 
  634000       633998    99.868388    7.7592449      2872854 0.0092730176    294.85191    1782.9977   -42.896604    38.200391    299.54812            0 
  634500       634498    100.14916    7.0004886    2868987.2 0.0092855159     287.2054     1779.535   -43.446445    37.387612    293.26424            0 
  635000       634998    100.04169    8.4265955    2875039.3 0.0092659693    289.69986     1780.428   -42.544517    35.563437    296.68094            0 
  635500       635498    100.02648    10.773871    2878002.6 0.0092564288    289.14303    1779.6446     -43.6971    36.145171    296.69496            0 
  636000       635998    100.20524    10.270508    2877629.9 0.0092576275    288.07702    1781.2423   -42.986845     38.11087    292.95299            0 
  636500       636498    100.06838     11.46754    2867555.7 0.0092901512     287.6027    1778.7286   -47.087772    38.292432    296.39804            0 
  637000       636998    99.853597    12.686605    2856654.1 0.0093256044    291.99939    1779.9248   -45.168364    35.879321    301.28843            0 
  637500       637498     100.0107    11.847333    2851637.3 0.0093420107    289.68136    1779.9477   -45.072145    37.363669    297.38984            0 
  638000       637998    100.10596    12.430541    2849866.4 0.0093478157    287.25203    1778.9378   -44.953837    37.837726    294.36814            0 
  638500       638498    100.13027    11.946929    2850366.2 0.0093461767    288.87122    1780.9193   -43.133941    37.170312    294.83485            0 
  639000       638998    99.881195    12.033055    2847972.4 0.0093540323    290.28567    1778.6223   -44.115648    36.162701    298.23862            0 
  639500       639498    100.19062    9.7621198    2852807.7 0.0093381781    290.30317    1783.2505   -43.034529    37.272078    296.06562            0 
  640000       639998    99.785162    10.010725    2857195.9 0.0093238361    292.81035     1779.716   -41.118098    38.273597    295.65485            0 
  640500       640498    100.16718    9.3648258    2869334.5 0.0092843918    291.01286     1783.611   -43.719384    38.439345    296.29289            0 
  641000       640998    99.781338    7.5793993    2875883.3 0.0092632501    293.99009    1780.8387   -43.023098    37.536796    299.47639            0 
  641500       641498    99.801723    7.1825524    2870268.5 0.0092813708    296.35864     1783.511   -42.048591    39.634282    298.77295            0 
  642000       641998    100.16759    6.0621859    2855368.6 0.0093298027     289.4945    1782.0988   -43.651081    38.023002    295.12258            0 
  642500       642498    99.962912    7.7428719    2842031.1 0.0093735872    286.33117    1775.8855   -47.035859    36.766182    296.60085            0 
  643000       642998    99.797203    8.2828097    2840945.3 0.0093771697    293.31701    1780.4021   -46.932736    38.918157    301.33159            0 
  643500       643498    99.980219    5.0851362    2849604.7 0.0093486742    288.95207    1778.7643   -46.085593    38.579445    296.45822            0 
  644000       643998    99.940096    5.7055146    2863540.9 0.0093031762    292.29114    1781.5055   -40.891096    37.199461    295.98278            0 
  644500       644498    100.00542    6.4149252    2879169.6 0.0092526769    296.95374    1787.1414   -39.385093    37.525151    298.81368            0 
  645000       644998    99.965695     7.024334    2890551.9 0.0092162421    297.31217    1786.9079    -40.68033    38.420172    299.57233            0 
  645500       645498    99.966208    8.9483682    2882483.2 0.0092420402    295.94165     1785.545   -40.320502    39.153381    297.10877            0 
  646000       645998    99.902454    11.227439    2876823.9 0.0092602214    295.64747    1784.3009   -41.014326     37.71525    298.94654            0 
  646500       646498    100.05057    13.537931    2870523.3 0.0092805467    290.01835    1780.8788   -45.857717    38.151365     297.7247            0 
  647000       646998    99.904049    14.979541    2871742.2 0.0092766076    294.00256    1782.6797   -42.501086    38.580792    297.92285            0 
  647500       647498    100.01767    17.012294    2864272.4 0.0093008003    294.53549    1784.9057   -41.722244     38.06643     298.1913            0 
  648000       647998    100.35165    17.222952    2862562.2 0.0093063572    290.60814    1785.9551   -40.210039    37.753089    293.06509            0 
  648500       648498    99.659605    17.777981    2859043.2 0.0093178115    300.88075    1785.9154   -39.597762     39.91163    300.56688            0 
  649000       648998    99.893846     12.80983    2853735.9 0.0093351408    297.31377    1785.8389   -40.293197    38.219327    299.38764            0 
  649500       649498    100.33043    7.2519614    2847658.2 0.0093550645    290.70249    1785.7332   -40.500868    36.750173    294.45319            0 
  650000       649998    99.798701    3.9279913    2849569.4 0.0093487899    298.52558     1785.633   -40.037746     40.73482    297.82851            0 
  650500       650498    99.907511    2.4195839    2851010.6 0.0093440642    299.66301    1788.3918   -38.939023    38.865596    299.73644            0 
  651000       650998    99.706009    3.8665109    2857703.9 0.0093221786    308.35953    1794.0857   -33.419052    38.372607    303.40597            0 
  651500       651498    99.907015    2.9329689    2854358.2 0.0093331055    306.70771    1795.4291   -32.862062    40.508347    299.06143            0 
  652000       651998    100.23424    4.1168855    2842655.7 0.0093715273    295.75086    1789.3483    -40.10983    39.614564    296.24613            0 
  652500       652498    100.06828    7.1040914    2837262.9 0.0093893401    299.30678    1790.4311   -37.285673    38.474376    298.11807            0 
  653000       652998    99.878044    7.5764491    2837914.3 0.0093871848    299.10647    1787.3961   -38.978461    39.364181    298.72075            0 
  653500       653498    99.747484    9.3994881    2841402.7   0.00937566    300.40317    1786.7474     -39.9169    38.706743    301.61333            0 
  654000       653998    100.01869    9.0111874    2844360.2 0.0093659113     300.2786     1790.664    -35.17355    38.172896    297.27925            0 
  654500       654498    100.03073     11.74943    2842833.9   0.00937094    302.17879    1792.7436   -36.739676    38.957553    299.96091            0 
  655000       654998    99.957897    13.048808    2851064.4 0.0093438877     303.0035    1792.4831   -35.773441     38.28612    300.49082            0 
  655500       655498    99.825392    12.230351    2865796.2 0.0092958549    306.26891     1793.774   -35.075184    39.294655    302.04944            0 
  656000       655998    99.628156    13.049035      2874463 0.0092678271    304.66432    1789.2304   -33.096398    39.491385    298.26933            0 
  656500       656498    100.12487    11.455552    2883321.4 0.0092393537     299.5453    1791.5129   -38.284424    38.496593    299.33313            0 
  657000       656998     99.93203    13.377398    2881619.7 0.0092448097    304.38741    1793.4815   -35.934197    39.631436    300.69017            0 
  657500       657498     100.0884    12.616027    2878140.5 0.0092559853    303.15628    1794.5805   -33.672512     38.79125    298.03754            0 
  658000       657998    100.05141    11.999532    2881010.7 0.0092467641    305.27305    1796.1461   -34.136913     38.85994    300.55002            0 
  658500       658498     100.0746    11.417227    2881120.5 0.0092464115    303.04883    1794.2674   -34.157848    39.049101    298.15757            0 
  659000       658998    100.06943     10.37501    2883410.7 0.0092390675    299.94532    1791.0868   -40.241839    38.936523    301.25063            0 
  659500       659498    99.869865    8.7724052    2891383.9 0.0092135901    299.05221      1787.22   -39.796367    39.242346    299.60623            0 
  660000       659998    100.09003    5.5166739    2893199.8 0.0092078073    298.26155      1789.71   -40.012297    39.660134    298.61371            0 
  660500       660498    99.774396     5.629841    2890419.2 0.0092166651    305.61631    1792.3615   -35.307745    39.635049    301.28901            0 
  661000       660998    100.07113    6.7073956    2890960.6 0.0092149391    304.09359    1795.2605     -35.1998    37.943814    301.34958            0 
  661500       661498    100.05342    7.2061027    2895137.2 0.0092016453    305.37787    1796.2808   -33.024109    40.720868    297.68111            0 
  662000       661998    100.04786    9.4058844    2892658.2  0.009209531    302.84894    1793.6691   -36.434532    39.231701    300.05177            0 
  662500       662498     99.96057    11.375462      2885603 0.0092320483    305.61559     1795.135   -35.358565    38.695019    302.27913            0 
  663000       662998    99.750589    12.163123    2895810.8 0.0091995051    304.60293    1790.9934   -35.493345    39.160923    300.93535            0 
  663500       663498    100.15798    12.124735    2905244.9 0.0091696317    305.95918    1798.4202   -32.543428    40.036189    298.46642            0 
  664000       663998    99.650775    14.549783    2907065.2 0.0091638902    314.92596    1799.8291   -29.125334     39.12222    304.92908            0 
  664500       664498     99.97595    13.359255    2906664.9 0.0091651521    306.82327    1796.5718   -31.669752    38.264361    300.22867            0 
  665000       664998    99.902808    14.802107    2897690.5 0.0091935373    307.30249    1795.9612   -33.424883     40.64202    300.08535            0 
  665500       665498    100.28795    13.914762    2889871.3 0.0092184125    302.57007    1796.9678   -35.911781    39.510238    298.97161            0 
  666000       665998    99.682239    13.714482    2875334.3 0.0092650188    309.92945    1795.3014   -31.184695    40.761093    300.35305            0 
  666500       666498      100.172    11.186315    2858381.3 0.0093199693    298.06389    1790.7339   -40.963846    38.537229    300.49051            0 
  667000       666998    99.976709    10.563408    2848601.2 0.0093519676    300.55785    1790.3177   -39.753852    39.015243    301.29646            0 
  667500       667498    100.01915    11.160254    2837789.4 0.0093875979    302.21924    1792.6115   -38.545833    39.096989    301.66808            0 
  668000       667998    100.06404    10.321208    2827468.4 0.0094218651    298.34285    1789.4041   -42.768432    38.839209    302.27207            0 
  668500       668498    99.647725    10.951384    2826692.3  0.009424452     302.6053     1787.463   -38.947567    39.238271     302.3146            0 
  669000       668998    100.23941    7.6735306    2834782.5 0.0093975554    299.27752    1792.9519   -39.718382    40.629377    298.36653            0 
  669500       669498    100.12226    6.9512642    2839831.1 0.0093808486    301.10283    1793.0316   -40.351403    40.173925     301.2803            0 
  670000       669998    99.513834     7.587145    2841191.5 0.0093763571    301.92099    1784.7835   -43.685089    40.127617    305.47846            0 
  670500       670498    100.23415    4.5319051    2849455.4  0.009349164    297.19264    1790.7886   -42.203647    40.425962    298.97032            0 
  671000       670998    99.793581    4.9452069    2858101.9 0.0093208803    304.54354    1791.5746   -37.442825    40.775592    301.21077            0 
  671500       671498    99.881405    6.4676276    2861544.4 0.0093096671    302.67947    1791.0192   -38.930757    39.166627    302.44361            0 
  672000       671998    100.11119    5.6908876    2872345.8 0.0092746584    297.59224     1789.356   -45.227379    41.416149    301.40347            0 
  672500       672498    99.930881    4.9732569    2887590.8  0.009225693    302.33932    1791.4163   -40.112779    41.136424    301.31567            0 
  673000       672998    99.924693    6.9115222    2887184.1 0.0092269926    306.09627    1795.0811   -38.674295    40.200457    304.57011            0 
  673500       673498    99.980436    9.0851301    2873520.1 0.0092708682     302.1898    1792.0052   -40.031346    41.014321    301.20683            0 
  674000       673998    99.882413    11.496965    2864501.3 0.0093000571    299.53346    1787.8882    -42.80957    40.832777    301.51025            0 
  674500       674498     100.1669    10.590365    2863999.5 0.0093016867    303.09758    1795.6915   -38.045554    41.355186    299.78795            0 
  675000       674998     100.1065    12.710245    2862616.3 0.0093061812    301.24521    1792.9392   -40.200013    39.125359    302.31986            0 
  675500       675498    100.00766    14.004521    2877664.9 0.0092575151    304.75385     1794.975   -37.787199    41.258857    301.28219            0 
  676000       675998     100.1839    14.774856    2892060.1 0.0092114358    302.30188    1795.1491   -38.422078    39.605076    301.11888            0 
  676500       676498    100.16021    15.292661    2908076.6 0.0091607031     301.5651    1794.0594   -39.487256    39.468309    301.58405            0 
  677000       676998    99.981549    13.743232    2906589.7 0.0091653892    304.97258    1794.8046   -39.534123     40.79503    303.71167            0 
  677500       677498    99.851477     13.27578    2903576.4 0.0091749011    306.38775    1794.2816   -37.078676      40.8032    302.66323            0 
  678000       677998    99.823912    12.923963    2896640.4 0.0091968702    307.19894     1794.682    -36.77391    41.023214    302.94963            0 
  678500       678498    99.990333    12.582165    2896102.7 0.0091985779    303.66476    1793.6277   -38.244308    40.195987    301.71309            0 
  679000       678998    100.31973    11.397879    2898192.5 0.0091919448    297.91587    1792.7871   -42.053881    40.408659    299.56109            0 
  679500       679498    99.582535    10.821004      2904824 0.0091709605    300.40567    1784.2919   -44.292414    43.125892    301.57219            0 
  680000       679998    99.741169    6.8810608    2929647.4 0.0090932533    304.91718    1791.1673   -41.208915    41.850784    304.27531            0 
  680500       680498    99.948582    4.8669821    2929446.3 0.0090938776    307.33634    1796.6771   -39.169842    41.634568    304.87162            0 
  681000       680998    99.749795    3.2357482    2924479.3 0.0091093226    312.38697    1798.7656   -35.176536    41.673646    305.88987            0 
  681500       681498    100.00181    4.1743993    2926742.1 0.0091022799    308.84848    1798.9824   -36.068513     41.34053    303.57646            0 
  682000       681998    100.20472    6.2515551      2932773 0.0090835621    305.93229    1799.0898   -36.252287    41.062096    301.12248            0 
  682500       682498     99.82921    9.2321021    2933892.1 0.0090800972    310.42459    1797.9866   -34.987111    42.545919    302.86578            0 
  683000       682998    100.09612     11.97999    2933726.7 0.0090806093    308.91861    1800.4578   -36.897196    41.084575    304.73123            0 
  683500       683498    99.855711     15.35939    2934110.9 0.0090794201    308.05015     1796.007    -37.28788    40.981428     304.3566            0 
  684000       683998    99.801426    15.770296    2941739.4 0.0090558756     309.7738    1796.9218   -35.479183    41.912671    303.34031            0 
  684500       684498    100.00574    13.820014    2943803.4 0.0090495262    307.48882    1797.6813   -36.622271    41.319539    302.79155            0 
  685000       684998     100.0044    13.016787      2946117 0.0090424195    307.04915    1797.2217   -34.910737     41.43164    300.52825            0 
  685500       685498    100.00496    11.215182    2949179.7 0.0090330291    307.85827    1798.0392   -38.573745     42.68634    303.74568            0 
  686000       685998    99.801249    11.044634    2947842.7 0.0090371259    308.80702    1795.9524   -35.380562    41.516009    302.67157            0 
  686500       686498    99.996587    9.3403955    2954212.1 0.0090176416    310.88272    1800.9388    -33.52617    42.248974    302.15991            0 
  687000       686998    100.16104    8.6766149      2960480 0.0089985496    305.04708    1797.5536   -40.612413    41.990019    303.66947            0 
  687500       687498    99.593165    9.0158759    2962742.4 0.0089916781    311.26054    1795.3052   -37.906965    42.076119    307.09138            0 
  688000       687998    99.922965    7.5183849    2960734.8  0.008997775    307.87825    1796.8373   -37.848767    42.296059    303.43096            0 
  688500       688498    100.27483    7.0801894    2948265.3 0.0090358307    304.33206    1798.5343    -41.52157     41.10375    304.74988            0 
  689000       688998    99.882718    7.2640913      2948082 0.0090363925     306.9076    1795.2669    -38.90847    42.554639    303.26143            0 
  689500       689498    99.977581    5.8534294    2950733.8 0.0090282716    304.99993    1794.7728   -40.371532    41.339186    304.03227            0 
  690000       689998    99.815313    6.7051235    2949577.8 0.0090318098     308.8634    1796.2183   -39.353733    42.210905    306.00623            0 
  690500       690498    99.952646    7.9547305      2950861 0.0090278823    308.29981    1797.7011   -38.224329    41.382952    305.14118            0 
  691000       690998    100.00544     8.611124      2950965  0.009027564    312.95612    1803.1442   -33.019354    41.412501    304.56297            0 
  691500       691498    99.997929    9.5703111    2943071.8 0.0090517757    309.83561    1799.9117   -36.675375    41.376711    305.13428            0 
  692000       691998    99.894315    10.304215    2939668.2 0.0090622562     314.7481    1803.2802   -34.163876    41.697893    307.21408            0 
  692500       692498    100.10981    9.4815774    2934884.7 0.0090770265    307.41225    1799.1555   -37.007446    42.756832    301.66287            0 
  693000       692998    99.895359    10.501001    2929825.9 0.0090926993    307.36668    1795.9144   -37.875377    42.457779    302.78428            0 
  693500       693498    99.792063    13.030198    2925592.5 0.0091058567    310.31088    1797.3193   -38.784537    41.664953    307.43046            0 
  694000       693998    99.724281    13.399304    2926633.6 0.0091026175    309.55366    1795.5521   -39.896051    42.883425    306.56629            0 
  694500       694498    100.07886    11.116699    2939198.2 0.0090637053    306.66133    1797.9434   -38.807296    41.731651    303.73697            0 
  695000       694998    99.657786    12.374372    2943053.3 0.0090518327    311.62128    1796.6289   -39.347033    42.008638    308.95967            0 
  695500       695498    99.668521    11.906739    2942415.8 0.0090537937    315.51681    1800.6844   -33.569117    43.387519    305.69841            0 
  696000       695998    100.38952    10.334999    2937003.8 0.0090704771    306.83489    1802.7461   -36.972664    41.745513    302.06204            0 
  696500       696498    99.945234    11.310521    2923750.8 0.0091115926    312.51997    1801.8108   -35.795546    42.815236    305.50028            0 
  697000       696998    99.895298    9.3270911    2915750.5 0.0091365931    314.47268    1803.0195   -35.637852    43.296863    306.81367            0 
  697500       697498    99.934302    10.000451    2910247.7 0.0091538688    313.45647    1802.5844   -38.118522    41.923883    309.65111            0 
  698000       697998    99.900663     8.611326    2911105.3 0.0091511721    314.56964    1803.1964   -35.756977    43.195841    307.13077            0 
  698500       698498    100.33893    7.5483787    2904911.3 0.0091706848    309.08534    1804.2426   -34.821955    42.700637    301.20666            0 
  699000       698998    100.07615    6.4361611    2908541.2 0.0091592397    310.73949    1801.9811   -38.153919    42.266471    306.62693            0 
  699500       699498    100.03492     5.244141    2912257.3 0.0091475522     311.1919    1801.8192   -37.585224    42.977677    305.79945            0 
  700000       699998    99.869352    4.7961562    2916262.9 0.0091349879    310.05713    1798.2173   -40.002642    42.353442    307.70633            0 
  700500       700498    99.924528    5.1053955    2917845.7 0.0091300324    313.39685    1802.3792   -37.021666    43.328884    307.08963            0 
  701000       700998    100.13081    6.1902994    2905275.4 0.0091695353    308.03202    1800.0881   -40.438045    43.875833    304.59423            0 
  701500       701498    100.05216    7.9677854    2898352.3 0.0091914381    306.98835    1797.8726   -38.942145    41.922701    304.00779            0 
  702000       701998    99.590752    10.312092    2893831.6 0.0092057968    315.66323    1799.6719    -35.67548    43.018201    308.32051            0 
  702500       702498    99.943828    9.5888358    2885476.5  0.009232453     312.6941     1801.964   -37.937115    43.930473    306.70075            0 
  703000       702998    99.692435    12.657316    2883774.6 0.0092379017    317.71526    1803.2392   -33.807123    43.261014    308.26137            0 
  703500       703498    100.04963    14.009439    2883448.2 0.0092389474    308.98701    1799.8334   -40.201559     42.33678    306.85179            0 
  704000       703998    100.09477    15.577583    2884224.6 0.0092364604    306.26365    1797.7828    -40.19933     42.25205    304.21093            0 
  704500       704498    100.31986    15.194993    2884438.6 0.0092357749    302.70206    1797.5753   -43.176206    42.835897    303.04237            0 
  705000       704998    99.995614    14.889082    2885073.3  0.009233743    310.90087    1800.9425   -36.066073    41.629105    305.33784            0 
  705500       705498    99.933657     16.30964    2875821.9 0.0092634477     312.0729    1801.1913   -39.343817    42.725117     308.6916            0 
  706000       705998    99.921914    13.416597    2882869.7 0.0092408012    307.66656    1796.6099   -41.503126    42.487932    306.68175            0 
  706500       706498    99.950487    12.875255    2899394.3 0.0091881348    307.89405    1797.2632   -42.245732    42.663177    307.47661            0 
  707000       706998    100.06563    11.653983    2918362.5 0.0091284156    303.09961    1794.1845   -46.024011    41.983557    307.14007            0 
  707500       707498    100.28652    10.256592    2922297.9 0.0091161225    304.71088    1799.0872   -42.276739     41.54945    305.43817            0 
  708000       707998    100.11204    9.0940622    2907728.6 0.0091617992    307.88262    1799.6591   -41.220798    44.270694    304.83273            0 
  708500       708498     99.98504    10.480232    2883841.4 0.0092376876    313.27472    1803.1587    -39.13309    43.843722    308.56408            0 
  709000       708998    99.698843    11.657133    2862989.3 0.0093049688    316.66692    1802.2863   -36.680008    42.198199    311.14873            0 
  709500       709498    100.09852    8.4887243    2853263.2 0.0093366872     313.9847    1805.5596   -35.359948    43.643884    305.70076            0 
  710000       709998    100.07429      10.1581      2853426 0.0093361544    314.00167    1805.2156   -34.536176    42.057416    306.48043            0 
  710500       710498    100.35882    11.287136    2856867.7 0.0093249069    305.85088    1801.3046   -42.248771    42.798913    305.30073            0 
  711000       710998    99.780583    10.147645    2870463.4 0.0092807406    313.96807    1800.8055   -39.240419    42.875174    310.33332            0 
  711500       711498    99.315702    8.2863065      2876557 0.0092610805    317.67521    1797.5854    -35.90624    43.613621    309.96783            0 
  712000       711998    100.14756    4.8183124    2877934.6 0.0092566474    309.27616     1801.582   -38.821638    43.998031    304.09977            0 
  712500       712498    100.01214    5.0891625    2869213.2 0.0092847845    311.69066    1801.9786   -38.769596    43.387615    307.07264            0 
  713000       712998    99.989668    4.7609747    2858760.9 0.0093187318    313.57894    1803.5319    -38.50924     42.72573    309.36245            0 
  713500       713498    100.05385     4.212949    2855482.8 0.0093294297    308.00133    1798.9106   -44.084822    44.360132    307.72602            0 
  714000       713998    100.18121    5.6284342      2855449 0.0093295401    304.50853    1797.3157   -45.186117    43.530361    306.16428            0 
  714500       714498    99.966199    8.2434716    2850903.7 0.0093444144     307.2227     1796.826   -43.034513    43.246089    307.01112            0 
  715000       714998     99.69223    9.7705146    2845369.7 0.0093625885    311.24596    1796.7668   -40.610963    45.188807    306.66811            0 
  715500       715498    100.26997    10.473626    2843797.3 0.0093677653    309.16487    1803.2947   -39.383523    42.700981    305.84741            0 
  716000       715998    99.983971    10.489483    2850083.3 0.0093471044    314.98926    1804.8574   -36.755479     43.68716    308.05757            0 
  716500       716498    99.778336    13.148749    2858798.2 0.0093186101      318.275    1805.0789   -36.771042    45.103328    309.94272            0 
  717000       716998    100.37639     11.70609    2864685.2 0.0092994602    308.68862    1804.4042   -38.000472    41.631776    305.05732            0 
  717500       717498    100.10778    10.626138    2859761.4 0.0093154716    311.66097    1803.3739   -39.210445    44.033738    306.83768            0 
  718000       717998    99.702286    13.071523    2855278.3  0.009330098    313.73665    1799.4073   -39.180355    42.746348    310.17066            0 
  718500       718498    99.927779    9.9485057    2861772.9  0.009308924    310.16002    1799.1908   -40.308234    43.368693    307.09956            0 
  719000       718998    100.14941    10.294403    2870063.1 0.0092820348    312.56301    1804.8963    -37.77835    44.655549    305.68581            0 
  719500       719498    100.11008    12.555536      2873502 0.0092709265    313.05065    1804.7979   -40.065767    43.248738    309.86768            0 
  720000       719998    99.855991    10.715379      2884171 0.0092366319    314.58624    1802.5473   -37.353506    44.835956    307.10379            0 
  720500       720498    99.985301    9.8017596    2897332.6 0.0091946729    315.55721    1805.4451   -39.669745    43.674607    311.55235            0 
  721000       720998    100.00025    6.3921238    2898867.2 0.0091898057    316.65946    1806.7702   -35.293875    44.359984    307.59335            0 
  721500       721498     100.0985    7.2355483      2895385 0.0092008578    316.59162    1808.1664    -36.68838    44.186867    309.09313            0 
  722000       721998    99.730448    9.0859442    2890767.3 0.0092155552    315.81574    1801.9061   -37.731867    45.393728    308.15388            0 
  722500       722498    99.927454    9.6566997    2896486.9 0.0091973576    314.05756    1803.0835   -38.479713    43.152488    309.38478            0 
  723000       722998    99.691438    9.8557994    2902464.9 0.0091784146     325.2601    1810.7691   -29.548534    44.210739     310.5979            0 
  723500       723498    99.909509    8.2143188    2897035.4 0.0091956163    320.54954    1809.3081   -35.311865    45.566175    310.29523            0 
  724000       723998    100.36828    6.5892706    2892423.5 0.0092102786    314.25236     1809.847    -35.14277    42.922415    306.47272            0 
  724500       724498    99.962015     8.820249    2894462.3 0.0092037908    318.65047    1808.1914   -37.290881     45.08745     310.8539            0 
  725000       724998    100.02716    8.5976204    2892273.2  0.009210757     312.0368    1802.5484   -39.728718    45.007139    306.75838            0 
  725500       725498    99.693561    8.7329086    2894008.4 0.0092052345    319.42919    1804.9699   -35.174317    44.714759    309.88874            0 
  726000       725998    100.03042    8.8242478    2894400.8 0.0092039864    317.56321    1808.1234   -35.537152     44.76631    308.33405            0 
  726500       726498    100.14092    8.8090884    2883646.2  0.009238313    316.76658    1808.9733    -33.10015    44.133018    305.73372            0 
  727000       726998    99.822708    10.388522    2870701.6 0.0092799703    317.56261    1805.0277   -37.189754     43.00021    311.75215            0 
  727500       727498    99.898306    10.838793    2862582.7 0.0093062903     317.6844     1806.276   -37.649604    44.370475    310.96353            0 
  728000       727998    100.13498    11.117392    2853176.4 0.0093369711     315.0503    1807.1686   -36.261532    45.738626     305.5732            0 
  728500       728498     100.3637    13.408109    2844471.8 0.0093655441    309.29864    1804.8251   -41.161302    42.128407    308.33154            0 
  729000       728998    100.07041    14.663768    2844032.1 0.0093669921    311.57705    1802.7333   -42.179797    45.714561    308.04229            0 
  729500       729498    99.985174    15.665399    2842843.3 0.0093709091    312.64112    1802.5271   -42.112949    44.428445    310.32563            0 
  730000       729998    100.05681    15.878417      2844131 0.0093666663    309.32396    1800.2775   -43.531676    42.511622    310.34402            0 
  730500       730498    100.24217    13.503519    2848783.8 0.0093513682    314.49173    1808.2073   -37.369807    46.283581    305.57796            0 
  731000       730998      100.206    12.053711    2844789.5  0.009364498    308.82878    1802.0053   -42.307091    44.351126    306.78475            0 
  731500       731498    99.631754    11.964655    2850906.4 0.0093444056    318.96084    1803.5805   -35.946726     44.76161    310.14596            0 
  732000       731998    99.704893    11.434321      2844327 0.0093660208    319.70949     1805.419   -36.431347    45.290409    310.85043            0 
  732500       732498    100.19553    8.5236299    2836546.5 0.0093917113    314.01465    1807.0353   -38.336781    45.678733     306.6727            0 
  733000       732998    99.982909    8.3521217    2836419.5 0.0093921318    321.14778         1811   -33.269197    44.717061    309.69992            0 
  733500       733498    100.04086    7.6998515    2838126.5 0.0093864828    316.48838    1807.2042   -37.160891     45.21982    308.42946            0 
  734000       733998    99.728269    7.6911877    2853184.2 0.0093369456    324.41511     1810.473   -32.432727    46.978611    309.86922            0 
  734500       734498    100.01663    6.9798668    2854994.9 0.0093310241    320.96023     1811.315   -33.548084    45.917603    308.59071            0 
  735000       734998    100.33694    7.1226343    2855246.4 0.0093302021    314.67399    1809.8017   -37.261666    46.541247    305.39441            0 
  735500       735498    99.853903    10.162647    2856599.7 0.0093257818    316.61937    1804.5493   -39.882478    45.537624    310.96422            0 
  736000       735998    99.962875    10.540535    2861472.3 0.0093099016    315.79124     1805.345   -39.516139    45.451087     309.8563            0 
  736500       736498    100.01657    12.840186    2860688.3 0.0093124531     317.0893    1807.4432   -37.473692     45.07206    309.49094            0 
  737000       736998    100.15802    11.563385    2851010.2 0.0093440656    319.16132    1811.6229   -32.824859    45.683885    306.30229            0 
  737500       737498    100.24628    12.157012    2837381.2 0.0093889483     312.8402    1806.6169   -39.580545    47.188077    305.23267            0 
  738000       737998    99.718775    14.817009    2830626.8 0.0094113522    315.63807    1801.5545   -40.347459     44.76105    311.22448            0 
  738500       738498    99.694219    13.513493      2827771 0.0094208568    320.49344    1806.0439   -38.573588    44.938003    314.12902            0 
  739000       738998    100.12579    10.638049    2817910.1  0.009453824    313.71805    1805.6993   -39.768227    46.080103    307.40617            0 
  739500       739498    100.09558    11.305388    2803630.5 0.0095019747    308.62796    1800.1592   -42.719124    46.012062    305.33503            0 
  740000       739998    100.11956    10.926408    2801465.1 0.0095093193    313.10115    1804.9896   -38.389371    45.752056    305.73846            0 
  740500       740498    99.748063    13.333165    2802456.3  0.009505956    322.41454    1808.7674   -34.947294    45.101129    312.26071            0 
  741000       740998    99.768036    11.837993      2801000 0.0095108984    318.91533    1805.5658   -37.564292    46.383913    310.09571            0 
  741500       741498    99.973094    8.9118838    2807758.2 0.0094880057    318.42949    1808.1355   -33.259353    46.353175    305.33566            0 
  742000       741998    100.29049    7.4124905    2812951.4 0.0094704892    314.33582    1808.7713   -37.217233     45.98142    305.57163            0 
  742500       742498      100.165    7.5917814    2813309.2 0.0094692846    316.59543     1809.161   -38.594499    46.336818    308.85311            0 
  743000       742998    99.843801    8.0803743      2807808 0.0094878373    317.72198    1805.5014   -39.222209    45.835822    311.10837            0 
  743500       743498    99.563612    9.4218493      2805203 0.0094966481    323.56666     1807.171   -36.869841    48.038266    312.39824            0 
  744000       743998    99.956174    6.4982237    2799213.6 0.0095169678    315.79526    1805.2492   -37.759137     45.74925    307.80515            0 
  744500       744498     100.2926    6.3859527    2792709.4 0.0095391327     310.2084    1804.6754   -41.227429    44.873468    306.56236            0 
  745000       744998    100.13026    5.4670062    2788643.2 0.0095530419    313.78899    1805.8369    -41.58116    47.382401    307.98775            0 
  745500       745498    99.784077    9.7861519    2789414.1 0.0095504019     318.3791    1805.2686   -39.381596    46.466201     311.2945            0 
  746000       745998    99.945601    11.644821    2788830.5 0.0095524007    318.79247    1808.0888   -36.282166    44.842279    310.23236            0 
  746500       746498    100.01257     14.00309    2780350.1 0.0095815366    320.40397    1810.6982   -35.540928    46.959269    308.98563            0 
  747000       746998    100.06756    13.885524    2776332.2 0.0095954028    314.73673    1805.8504   -37.975416    46.248773    306.46337            0 
  747500       747498    100.04758    11.481151    2779052.4 0.0095860107    320.06169    1810.8777     -36.5055    46.454895    310.11229            0 
  748000       747998    99.995633     9.626596      2779226 0.0095854117    318.09427    1808.1361    -38.37721    46.915034    309.55645            0 
  748500       748498    100.27689    7.4431511    2775781.1 0.0095973078    305.38985    1799.6228   -47.179278    45.578092    306.99103            0 
  749000       748998    99.958109    7.5559826    2775616.7 0.0095978764    312.11809    1801.6008   -43.684568    47.216184    308.58647            0 
  749500       749498    99.926905    9.2080822    2768608.5 0.0096221717    312.31929     1801.337   -43.841505    45.556483    310.60431            0 
  750000       749998    99.984035    9.0076063    2766429.5 0.0096297506    312.88265    1802.7517   -42.127606    47.000125    308.01013            0 
  750500       750498    99.993561    8.6172295    2760950.8 0.0096488594    318.60592    1808.6169   -36.614512    47.992843    307.22759            0 
  751000       750998    99.739357    11.023749    2761176.6 0.0096480703    318.57285    1804.7959   -40.251596    45.872329    312.95211            0 
  751500       751498    100.33053    8.9422339      2762621  0.009643026    309.73973    1804.7719   -42.805302    47.156053    305.38898            0 
  752000       751998    100.42368    7.9098372    2763131.8 0.0096412434    306.71498    1803.1353   -45.627362    46.441236    305.90111            0 
  752500       752498    99.717549     9.244941    2764186.5 0.0096375645    315.17565    1801.0738    -44.72925    47.793781    312.11112            0 
  753000       752998    100.20569    11.176893    2758196.8 0.0096584936    309.74119    1802.9131   -47.895541    46.132527     311.5042            0 
  753500       753498    100.25953    9.2124037    2752103.8  0.009679877    307.88532    1801.8595   -45.343749    47.202077    306.02699            0 
  754000       753998    99.885514    9.4209195    2754590.6 0.0096711382    318.23742    1806.6384    -39.12176    48.393277     308.9659            0 
  754500       754498    99.962181    9.3228255    2752288.8 0.0096792264     319.1465    1808.6899   -37.925413     46.91016    310.16176            0 
  755000       754998    99.756638     9.613713    2748240.9 0.0096934829    319.02112    1805.5017   -40.612651    47.925321    311.70845            0 
  755500       755498    100.14367    9.7538498    2743993.4 0.0097084876    318.42935    1810.6771   -37.378959     47.64729    308.16102            0 
  756000       755998    100.45212     11.10126    2735976.6 0.0097369348    309.18265    1806.0267    -42.78021    44.878406    307.08445            0 
  756500       756498    100.10243    13.288261    2737853.4   0.00973026    311.90398    1803.5373   -43.776446    48.065913    307.61452            0 
  757000       756998     100.0765     15.16703    2747032.5  0.009697747    321.40844    1812.6553   -37.138388    46.609767    311.93706            0 
  757500       757498    100.04864    13.806767    2756041.7  0.009666046    316.30396    1807.1356    -41.70316    45.791796    312.21532            0 
  758000       757998    99.878174    12.510389    2771145.7 0.0096133618    316.51887    1804.8105    -43.06863    48.375138    311.21236            0 
  758500       758498    100.40202    10.094082    2780805.3  0.009579968    312.89184    1808.9894   -35.957613    45.576448      303.273            0 
  759000       758998    99.934892    12.469106    2777523.6  0.009591287    320.68651    1809.8233   -37.793895    47.408056    311.07235            0 
  759500       759498    99.791167    11.275039    2777152.7  0.009592568    319.68732    1806.6824   -40.711677    47.682663    312.71634            0 
  760000       759998    100.20138    9.1481313      2781248 0.0095784433    316.62607    1809.7338   -39.958811    48.506079     308.0788            0 
  760500       760498    100.10938    10.714503    2776260.6 0.0095956504    318.82991    1810.5668   -39.187531    48.544823    309.47262            0 
  761000       760998    100.32616    8.1945946    2768287.4 0.0096232877    313.64272    1808.6098   -42.838302    48.014865    308.46615            0 
  761500       761498    99.731332    8.3747908    2768804.8 0.0096214895     319.8989    1806.0024   -42.248166    47.603415    314.54365            0 
  762000       761998    100.11323    6.1256899    2765274.2 0.0096337738     317.3977     1809.192   -40.664646    46.683945     311.3784            0 
  762500       762498    99.994452    6.5624982    2768349.2 0.0096230726    317.85005    1807.8743   -39.781436    48.602489    309.02899            0 
  763000       762998    100.02352     7.848337    2775513.7 0.0095982327    322.32426    1812.7817   -37.477833    46.394405    313.40769            0 
  763500       763498    100.33231    8.6963577      2773075 0.0096066733    314.20434    1809.2631   -41.090184    48.024517    307.27001            0 
  764000       763998    99.774001    12.122401    2771006.3 0.0096138452    325.25785    1811.9972   -34.767951    50.193133    309.83266            0 
  764500       764498     99.78646    14.709638    2772214.8 0.0096096542    323.90106     1810.826   -39.627944    47.368043    316.16096            0 
  765000       764998    100.11834    14.191343    2771733.9 0.0096113216    321.75243    1813.6227   -36.261123    48.128655     309.8849            0 
  765500       765498    100.18634    14.677678      2766013 0.0096312006    318.93663    1811.8202    -36.86612    47.291627    308.51112            0 
  766000       765998    100.04529    12.868006    2763899.4 0.0096385657    319.39112    1810.1729   -38.634818     48.03283    309.99311            0 
  766500       766498    100.03123    11.390928    2761077.2 0.0096484178    318.29068     1808.863   -39.987697    47.286813    310.99156            0 
  767000       766998    99.908434    12.194943    2754524.8 0.0096713692    322.37697    1811.1195   -40.896691    48.049884    315.22377            0 
  767500       767498    99.971432    10.723533    2756406.9 0.0096647653    320.56323    1810.2445   -38.750381    48.702066    310.61154            0 
  768000       767998    100.50287    10.827255    2761235.5 0.0096478644     312.2385    1809.8387   -39.853302    46.858045    305.23376            0 
  768500       768498    100.00487    11.349154    2771073.2 0.0096136131    323.57069    1813.7502   -36.966277    48.440927    312.09604            0 
  769000       768998    99.693017    11.992725    2774466.3 0.0096018559    326.18725    1811.7198   -36.614884    49.174419    313.62771            0 
  769500       769498    100.14904    10.352687    2777260.1 0.0095921968    320.44682    1812.7746   -39.282031    48.283542    311.44531            0 
  770000       769998    99.908726    10.616467    2781469.4 0.0095776806    320.07573    1808.8226   -41.959332    49.416918    312.61815            0 
  770500       770498    99.789174    9.7119975      2783841 0.0095695215    323.23899    1810.2044   -37.950608    49.080735    312.10886            0 
  771000       770998     100.1487    8.0642001    2781464.3 0.0095776984    313.95511    1806.2778   -44.777377    48.768935    309.96355            0 
  771500       771498    99.944415    7.4138189    2784007.7 0.0095689483    312.21033     1801.489   -45.971941    47.293425    310.88884            0 
  772000       771998     99.98186    7.8289054    2783758.9 0.0095698037    314.75852    1804.5952   -44.615262    47.893164    311.48062            0 
  772500       772498    99.739632    7.2228538    2785565.2  0.009563598    323.54507    1809.7723   -41.480186    49.541208    315.48405            0 
  773000       772998    99.824655    8.6150969    2787013.5 0.0095586282     319.5758    1807.0699   -42.007231    49.934844    311.64819            0 
  773500       773498     100.1305    7.7657755      2784047 0.0095688134    317.42407    1809.4756   -41.736215    49.189203    309.97108            0 
  774000       773998     100.0318    9.2224798    2780690.4 0.0095803641    316.72753    1807.3084   -41.966414    47.013908    311.68004            0 
  774500       774498    99.973237    9.0831764    2794754.7 0.0095321518     315.0565    1804.7646   -44.583157    48.872232    310.76742            0 
  775000       774998    99.949507    10.418573    2804676.6 0.0094984305    320.51535    1809.8699   -41.823581    49.334767    313.00416            0 
  775500       775498    99.728906    9.8226586    2813052.1 0.0094701502    320.72651    1806.7939   -43.439943    49.030476    315.13598            0 
  776000       775998    99.897615    10.320132    2812297.4 0.0094726915    321.68465    1810.2659   -41.262596    49.410015    313.53723            0 
  776500       776498    100.31519    8.7599907    2799074.7 0.0095174401    312.42796    1807.2316   -45.208168    48.822067    308.81406            0 
  777000       776998    99.847747    8.9515675      2793425  0.009536689    315.43885    1803.2771    -46.93997    49.118692    313.26013            0 
  777500       777498    100.05579    7.6564468      2797559 0.0095225967    314.82038    1805.7587   -46.683207    49.208428    312.29516            0 
  778000       777998    100.14721    6.4456601    2804307.1  0.009499682    317.08538     1809.386   -44.418833    49.501988    312.00223            0 
  778500       778498     100.1677    7.4025872    2814378.7 0.0094656864    315.89779    1808.5037   -44.208801    49.421163    310.68543            0 
  779000       778998    99.883076     9.187161    2834371.7 0.0093989175    319.93056    1808.2952   -42.568351    49.348346    313.15057            0 
  779500       779498    99.759964    8.8882317    2859971.4 0.0093147876    329.87768    1816.4078   -34.517523    50.534722    313.86048            0 
  780000       779998    99.834239    11.505906    2866216.9 0.0092944906     323.5844    1811.2213   -39.301712    49.828594    313.05752            0 
  780500       780498    100.12059    10.267739      2866405 0.0092938808    323.46206     1815.366   -37.755571      49.8315    311.38613            0 
  781000       780998    99.881219    13.258498    2853694.7 0.0093352752    329.82159    1818.1586   -35.225021    49.290326    315.75629            0 
  781500       781498    100.00825     13.76124    2836097.4 0.0093931985     325.6959    1815.9258   -36.434955    48.917144    313.21371            0 
  782000       781998    100.16732    14.178829    2811389.2 0.0094757516    324.94978    1817.5499   -37.084595    50.115602    311.91877            0 
  782500       782498    100.30324    11.012986    2795003.7 0.0095313025    317.51021    1812.1357   -41.236679    50.688615    308.05827            0 
  783000       782998     100.2865     12.77529    2779528.8 0.0095843677    318.85254    1813.2287   -41.506599    47.468304    312.89084            0 
  783500       783498    99.864943    14.264113    2774344.5 0.0096022774    318.52475    1806.6192   -45.375987    50.215408    313.68533            0 
  784000       783998    99.826707    14.285177    2774837.8 0.0096005705    322.35942    1809.8841   -43.692877    50.581281    315.47102            0 
  784500       784498    99.783367    13.270664    2788610.3 0.0095531549    321.93882    1808.8177   -42.331356    48.674808    315.59537            0 
  785000       784998    99.978239    12.056869      2811364 0.0094758365    317.45122    1807.2339   -42.296249    49.568508    310.17896            0 
  785500       785498    100.25693    10.377966    2830178.3 0.0094128438    321.45492    1815.3904   -38.903637    49.013189    311.34537            0 
  786000       785998    100.22528    9.5854358    2841341.8  0.009375861    321.33099    1814.7948   -43.173303    51.247713    313.25658            0 
  786500       786498    100.04371    10.408003      2854415 0.0093329197    326.86861    1817.6269   -37.173537     49.45251    314.58964            0 
  787000       786998    99.912896    11.768546    2845327.8 0.0093627265    321.58333    1810.3923   -42.962479    50.947559    313.59825            0 
  787500       787498     100.0108    11.011279    2841152.8 0.0093764849    320.56687    1810.8348   -43.044545    50.873193    312.73822            0 
  788000       787998    100.11628    7.8496749    2840140.3 0.0093798274    322.08395    1813.9235   -39.949543     49.42692    312.60657            0 
  788500       788498    100.07576    7.1871636      2837283 0.0093892736    323.68401    1814.9199   -41.139188    50.708335    314.11487            0 
  789000       788998    100.04565     6.709662    2844336.1  0.009365991    320.80601    1811.5932    -42.86266    50.790159    312.87852            0 
  789500       789498    100.01159    7.7538097    2846629.5 0.0093584451    322.73013    1813.0097   -40.391056    49.283513    313.83767            0 
  790000       789998    99.791503    9.7082035    2841405.6 0.0093756506    325.05286     1812.053   -43.371149    50.674797    317.74921            0 
  790500       790498    100.05735    7.7447762      2850499 0.0093457413    319.26076    1810.2223   -44.158672    51.248815    312.17062            0 
  791000       790998    100.08353    6.3861093    2865372.4 0.0092972298    322.94547    1814.2971   -40.686286    51.586881    312.04487            0 
  791500       791498    99.900623    6.7521844    2876224.1 0.0092621525    322.65532    1811.2814   -42.816654     50.65329    314.81868            0 
  792000       791998    100.11587     7.017525    2880172.6 0.0092494548    325.28199    1817.1155   -38.831362    50.406192    313.70716            0 
  792500       792498    99.905203    10.238336    2870977.2 0.0092790796    331.43287    1820.1272   -34.808237    52.305905    313.93521            0 
  793000       792998    100.06395    12.876512    2853966.8 0.0093343853    325.03598    1816.0959    -38.40337    50.038089    313.40126            0 
  793500       793498    99.934921    12.782892    2858019.6 0.0093211489    329.85705    1818.9943   -37.388079    50.157418    317.08771            0 
  794000       793998    99.768632    12.482539    2869833.9 0.0092827761    332.68996    1819.3493   -34.837063     49.78045    317.74658            0 
  794500       794498    100.21755    10.633921    2878850.7 0.0092537018    324.87926     1818.228     -36.3605     51.05674    310.18302            0 
  795000       794998    99.894994    12.750411    2883465.2 0.0092388927    331.54328    1820.0855   -33.971409    50.411456    315.10323            0 
  795500       795498    100.27706    13.081684    2889125.1 0.0092207936    325.38814    1819.6236    -37.05286    50.107533    312.33347            0 
  796000       795998    99.842743    13.685651    2890410.9 0.0092166917     330.7142    1818.4778   -35.849785    51.061296    315.50269            0 
  796500       796498    100.10624    12.045069    2882154.2 0.0092430952    322.17337    1813.8635   -44.441984    50.596017    316.01934            0 
  797000       796998    100.04493    11.509826    2872901.9  0.009272863    323.68254     1814.459   -40.541209    50.251715    313.97203            0 
  797500       797498    100.28821      10.5917    2863862.4 0.0093021321    323.99923    1818.4008   -35.615674    50.148886    309.46602            0 
  798000       797998    99.692291    11.929704    2861584.3 0.0093095375    330.78758    1816.3093   -37.999501    51.458453    317.32862            0 
  798500       798498    99.724676    10.833763    2873215.9 0.0092718497    331.50659    1817.5109   -37.851852    50.061698    319.29674            0 
  799000       798998    100.37664    8.0637564    2885720.9  0.009231671    321.98033    1817.6997   -39.165034    50.761255    310.38411            0 
  799500       799498    100.19898    7.5116585    2895736.8   0.00919974    323.69837    1816.7704   -43.058583    50.863885    315.89307            0 
  800000       799998    99.962783    5.8423757    2901329.9 0.0091820051    326.08062     1815.633   -41.163958    51.554608    315.68997            0 
  800500       800498    99.738865    4.9063205    2898611.2 0.0091906172     328.7285    1814.9442   -42.516476    51.270365    319.97461            0 
  801000       800998    99.967134    5.0135548    2880526.8 0.0092483172    326.79481     1816.412   -39.084564    50.698477     315.1809            0 
  801500       801498     100.1167    3.9434778    2856266.8 0.0093268688     322.4526    1814.2985   -42.284055    51.100894    313.63577            0 
  802000       801998    99.976437    6.2423003      2849731 0.0093482597    325.88413      1815.64    -40.29404    51.240813    314.93735            0 
  802500       802498    99.880683     7.251175    2855926.5 0.0093279802    333.73543    1822.0644   -31.827915    51.507339    314.05601            0 
  803000       802998    99.848697    9.4645245    2859860.1 0.0093151499    333.13349    1820.9859   -36.610186    52.102199    317.64148            0 
  803500       803498    99.958861    9.7372637    2860793.4  0.009312111    330.88374    1820.3777   -37.479786    50.952755    317.41077            0 
  804000       803998    100.00415    9.9838531    2858738.2 0.0093188057    330.17328    1820.3421    -37.22385    52.337906    315.05923            0 
  804500       804498    99.953495    8.1600367    2853712.1 0.0093352185    329.55444    1818.9684   -35.436409     52.30223    312.68862            0 
  805000       804998    100.13925    7.3409131    2848501.2 0.0093522957    321.46859    1813.6505    -43.39289    49.317984     315.5435            0 
  805500       805498    99.597281    8.8026916    2844383.7 0.0093658342    328.31336    1812.4194   -44.274854    52.070179    320.51803            0 
  806000       805998    99.948985    9.1274809      2837135 0.0093897634    323.39373    1812.7405    -42.35181    51.140252    314.60529            0 
  806500       806498    100.49315    9.2707641    2821573.4 0.0094415497    316.08765    1813.5431   -43.627341    50.196209    309.51878            0 
  807000       806998    99.792398    10.892532    2814049.3 0.0094667944    330.66503    1817.6785    -37.92965    53.057606    315.53707            0 
  807500       807498    99.958424    13.527695    2808112.3 0.0094868093    331.97736    1821.4648   -35.930027    49.987506    317.91988            0 
  808000       807998    100.19015    11.216221    2810603.1 0.0094784019    326.30901    1819.2494   -38.420511    49.401497    315.32803            0 
  808500       808498    99.833758    12.259501    2820897.4 0.0094438125    326.66518    1814.2949   -40.302576    52.635529    314.33223            0 
  809000       808998     99.79518     13.81377      2838857 0.0093840677     329.4929    1816.5478   -36.503805    51.501018    314.49568            0 
  809500       809498    100.27745    12.733357    2856150.1 0.0093272498    326.42469     1820.666   -38.686344    50.571206    314.53983            0 
  810000       809998    99.511629    12.594713    2867513.4 0.0092902881    333.68617    1816.5159   -39.991006    53.007242    320.66993            0 
  810500       810498    100.10794    10.560835    2861135.8 0.0093109967    330.51486    1822.2302   -37.668004    51.960216    316.22265            0 
  811000       810998    100.32329    10.087444    2853282.7 0.0093366235    323.11165    1818.0359   -38.464177    50.433878    311.14195            0 
  811500       811498     99.96994    11.158071    2854476.2 0.0093327196    326.10826    1815.7673     -41.7979    53.374563     314.5316            0 
  812000       811998    99.758661    12.379802    2867569.1 0.0092901076    333.31167    1819.8224   -37.348448    52.282634    318.37748            0 
  812500       812498    99.932524    13.318507    2878297.1 0.0092554815    334.28325    1823.3847   -34.334197    51.252749     317.3647            0 
  813000       812998    100.25361    12.284636    2876550.1 0.0092611027    329.01518    1822.9011   -35.999245    50.972447    314.04197            0 
  813500       813498    100.00211     7.270714    2877148.8 0.0092591756      328.397    1818.5354   -39.330094    53.482346    314.24475            0 
  814000       813998    99.862043    6.3131708    2878655.5 0.0092543294    331.46176     1819.513   -39.619614    51.754249    319.32713            0 
  814500       814498    100.07957    6.4722783    2877935.9 0.0092566433    327.20254    1818.4951    -39.75307    49.728465    317.22715            0 
  815000       814998    99.960248    6.3292052    2875865.8 0.0092633063     330.3102    1819.8248   -38.904414    52.464411     316.7502            0 
  815500       815498    99.833202     8.710266    2886655.1 0.0092286833    333.47464    1821.0961    -37.24535    52.209724    318.51027            0 
  816000       815998    100.06075    7.0513617    2890652.4 0.0092159216    331.70275     1822.715   -36.912818    52.965261     315.6503            0 
  816500       816498    100.17579    5.3797565    2881845.1 0.0092440867    331.58236    1824.3088   -35.330876    53.898482    313.01475            0 
  817000       816998    99.984332    7.2307875    2864505.2 0.0093000447    333.69567    1823.5691   -34.999592    53.132409    315.56286            0 
  817500       817498    100.09783     8.037619    2853387.9 0.0093362792    331.97318     1823.538   -35.282175    51.963924    315.29143            0 
  818000       817998    99.822481    9.7513359      2857220 0.0093237572    338.56588    1826.0276    -34.82326    52.972567    320.41657            0 
  818500       818498    99.801639    12.365001    2857096.8 0.0093241595    336.28861    1823.4398   -34.811869    52.875513    318.22497            0 
  819000       818998     100.3667    10.875385    2856187.2 0.0093271288    325.47076     1821.042   -38.666816    51.442341    312.69524            0 
  819500       819498    100.32947    11.427756    2849772.9 0.0093481224    330.49253     1825.509   -35.195825    51.569125    314.11924            0 
  820000       819998    99.906997    12.812659      2842260 0.0093728322    334.73432    1823.4554   -36.965712    53.708579    317.99145            0 
  820500       820498    99.777368    16.134397    2830632.9  0.009411332     331.8793    1818.6688   -39.609723    52.334231    319.15479            0 
  821000       820998    99.999792    15.033796    2828373.7 0.0094188495    327.88413     1817.988   -40.841704    51.299272    317.42656            0 
  821500       821498    99.946455    15.317921    2836405.3 0.0093921788     332.3055    1821.6146   -36.884609    52.921527    316.26858            0 
  822000       821998    100.33307    13.007446    2848137.5   0.00935349    326.52222    1821.5923   -38.101172    53.080322    311.54307            0 
  822500       822498    100.08402    14.555469    2848840.4 0.0093511824    332.03036    1823.3893   -38.257788    52.879453    317.40869            0 
  823000       822998    100.06671    12.642571    2847158.2 0.0093567073    327.24348    1818.3444   -41.966347    54.771375    314.43845            0 
  823500       823498    99.862187    12.180572    2834031.1 0.0094000473    329.92235    1817.9757   -39.583838    52.590545    316.91564            0 
  824000       823998    99.751998    10.693929    2820305.6  0.009445794    335.57221    1821.9837   -37.547569    51.644603    321.47517            0 
  824500       824498    99.780077    7.4019246    2813392.6 0.0094690039    333.12024    1819.9501   -38.696207     53.60731    318.20914            0 
  825000       824998    100.39476    4.8193944    2805775.9  0.009494709    321.94508    1817.9343   -42.652466    52.915536    311.68201            0 
  825500       825498    100.18153    3.7894973    2796514.6  0.009526153    327.01832    1819.8302    -40.71302    54.193933    313.53741            0 
  826000       825998    99.876771    5.0259104    2787357.5 0.0095574486    333.09576    1821.3665   -40.875618    53.943407    320.02797            0 
  826500       826498    99.831502    6.2780797    2776076.8 0.0095962857    331.10263    1818.6988   -40.333577    53.433846    318.00236            0 
  827000       826998    99.811466    2.0827494    2766049.9  0.009631072    331.01461    1818.3122   -41.150128    55.908417    316.25633            0 
  827500       827498    100.11895   0.96269378    2756023.9 0.0096661085    326.79441    1818.6738   -42.223081    53.146978    315.87051            0 
  828000       827998    100.05864    1.7554051    2758301.8 0.0096581259    329.46094    1820.4417   -40.839655    53.548481    316.75212            0 
  828500       828498    100.19778    4.3265905    2763645.5  0.009639451    326.50925    1819.5634   -40.062417     52.68493    313.88674            0 
  829000       828998    100.00562    6.4021786    2767662.3 0.0096254611    330.20567    1820.3963   -40.500952     54.02102     316.6856            0 
  829500       829498    99.854823    10.900506    2763752.8 0.0096390771    333.28032     1821.224   -39.587749    54.337923    318.53014            0 
  830000       829998    100.00585    12.245722    2756337.2 0.0096650098    329.03478    1819.2289    -40.86417    53.657837    316.24111            0 
  830500       830498    100.09317    13.175526    2759152.7 0.0096551473    327.52145    1819.0168   -42.450684    53.633447    316.33869            0 
  831000       830998    99.937708    13.918627    2764618.8 0.0096360577    331.55997    1820.7387   -40.186675    52.605342     319.1413            0 
  831500       831498    100.17017      14.1153    2760922.6  0.009648958     327.2492    1819.8918   -41.790643    54.305365    314.73447            0 
  832000       831998    100.10991    13.872314    2754502.5 0.0096714475    323.60527      1815.35   -43.756649    55.209812     312.1521            0 
  832500       832498    100.07712    15.378754    2755166.5 0.0096691164    327.69337    1818.9495    -41.16725    51.559843    317.30077            0 
  833000       832998     100.0882    15.751343    2759472.1 0.0096540297    329.74905    1821.1703   -38.197145    52.994549    314.95164            0 
  833500       833498    99.588812    15.951995    2767669.8 0.0096254352     330.9802      1814.96   -42.894171    53.476582    320.39779            0 
  834000       833998    100.16181    13.842306    2784821.5 0.0095661519    328.49683     1821.015   -40.230275    52.699439    316.02767            0 
  834500       834498    99.915421    12.740327    2784481.1 0.0095673215    331.71471    1820.5613    -39.68547    55.669491    315.73069            0 
  835000       834998    99.832447    10.527796    2781752.9 0.0095767045    329.58046    1817.1907   -42.582525    54.131066    318.03191            0 
  835500       835498    99.912506    13.139477    2777766.1 0.0095904496    327.39847    1816.2017   -46.692447    52.513821     321.5771            0 
  836000       835998     100.0423    13.561836    2770163.3 0.0096167709    328.90761    1819.6449   -41.917061    54.850417    315.97425            0 
  836500       836498    100.45819    11.837682    2758030.7 0.0096590753    322.85024    1819.7847   -42.608472    54.039792    311.41892            0 
  837000       836998    100.01559    11.423021    2746915.1 0.0096981614    329.05641    1819.3957   -42.038227    53.509362    317.58528            0 
  837500       837498    99.870622    9.3730825    2742104.6 0.0097151749    333.14889     1821.328   -40.699085    54.543245    319.30473            0 
  838000       837998    99.780694    7.0198733    2744384.9 0.0097071026    328.57981    1815.4189   -45.068484     55.43905    318.20925            0 
  838500       838498    99.965024    3.9429939      2757714 0.0096601843    330.48679    1820.0726   -41.612441    52.830828     319.2684            0 
  839000       838998    100.01764    2.7231433    2774665.5 0.0096011666    329.04641    1819.4162   -42.173037    54.266095    316.95336            0 
  839500       839498    99.985969    3.2114965    2780044.8 0.0095825886    330.94135    1820.8392   -43.209024    54.800189    319.35019            0 
  840000       839998    100.11151    5.2921272    2781638.3 0.0095770992    325.23426    1817.0028   -45.987568    53.478412    317.74342            0 
  840500       840498    99.874739    6.2903517    2783234.7 0.0095716059    330.69728    1818.9377    -43.35964    54.554695    319.50222            0 
  841000       840998    99.818714    7.3455365    2778535.5  0.009587794    334.23015    1821.6357   -39.294933    55.178429    318.34666            0 
  841500       841498    99.843681    8.9297214    2768850.1 0.0096213321    333.72511    1821.5027   -42.699886    55.057573    321.36742            0 
  842000       841998    99.974334     9.716725    2757002.6 0.0096626771     329.7343    1819.4588   -41.967038    54.309922    317.39142            0 
  842500       842498    100.02665    9.2529374    2752048.1 0.0096800729    329.38623    1819.8902   -40.692322    55.642317    314.43624            0 
  843000       842998    100.23079    12.417025    2738776.7 0.0097269797    329.30448    1822.8505   -42.399421    54.952072    316.75183            0 
  843500       843498    99.831266    14.308223    2723199.6 0.0097826198    334.03924    1821.6319   -42.256355      54.4422     321.8534            0 
  844000       843998    100.04635    13.047234    2734976.4 0.0097404958    329.79647    1820.5941   -42.536943    53.734229    318.59919            0 
  844500       844498    100.37998    11.876447    2749941.8 0.0096874871    324.01748    1819.7866   -43.440197    54.000437    313.45724            0 
  845000       844998    100.01595    11.910157    2765487.6 0.0096330304    329.23295    1819.5776   -41.047042    54.959484    315.32051            0 
  845500       845498    100.03987    12.474064    2775657.7 0.0095977346    333.07697     1823.778   -41.836299    54.880432    320.03284            0 
  846000       845998    99.702662    12.388979    2786843.5 0.0095592115     336.3275    1822.0038   -36.151026    55.021591    317.45693            0 
  846500       846498     99.82873    10.811544    2791644.4 0.0095427719     335.1771    1822.7319   -40.477515    55.020005    320.63461            0 
  847000       846998    99.827898    8.9200598    2794681.3 0.0095324023    331.91614    1819.4586   -42.285784    55.484573    318.71735            0 
  847500       847498    99.810405    5.7618136    2807316.4 0.0094894988    336.88962    1824.1714   -39.155123    55.872344     320.1724            0 
  848000       847998    99.934919    5.0058221    2807362.3 0.0094893438    335.20759    1824.3448   -41.892674    55.130717    321.96955            0 
  848500       848498    99.977903    5.2276808    2808973.5 0.0094839006    333.06567    1822.8433   -41.478124    55.874383    318.66941            0 
  849000       848998    100.01407     9.336471    2806681.8 0.0094916446    331.49082    1821.8074   -41.801836    56.709692    316.58297            0 
  849500       849498    100.11767    13.210477    2810603.4  0.009478401    332.12387    1823.9842   -39.895078    54.256739    317.76221            0 
  850000       849998    99.766072     14.89585    2814110.3 0.0094665892    338.48161    1825.1028   -38.960621    56.640816    320.80142            0 
  850500       850498    99.897701    13.955251    2811473.1 0.0094754688    333.80952    1822.3921   -40.266644    55.908382    318.16779            0 
  851000       850998    99.980741    13.199825    2806570.5  0.009492021    333.57805     1823.398   -39.846519     53.99397     319.4306            0 
  851500       851498    99.996222    10.879557    2797535.2 0.0095226775    328.55479    1818.6054   -43.818442    54.672329     317.7009            0 
  852000       851998    99.949161    11.926759    2798751.1 0.0095185405    334.02653    1823.3759   -40.780143    56.232998    318.57368            0 
  852500       852498    100.07364    13.209274    2791461.4 0.0095433975    328.92373    1820.1279   -45.006974    55.742916    318.18779            0 
  853000       852998    99.954545    14.612499    2792135.1 0.0095410948    329.92429    1819.3539   -43.691404    54.384396     319.2313            0 
  853500       853498    100.44222    13.163368    2787894.7  0.009555607    322.68091    1819.3774   -46.221655    55.143807    313.75876            0 
  854000       853998    99.886229    11.823074    2784146.6 0.0095684709    330.95388    1819.3655   -45.334116    56.755618    319.53237            0 
  854500       854498    100.12052    8.9021118      2783701 0.0095700025    330.12463    1822.0275    -44.02772    55.051203    319.10115            0 
  855000       854998    100.21544    5.8783489    2783287.8 0.0095714234    329.45416    1822.7714   -40.798348    56.534153    313.71836            0 
  855500       855498     99.91111    8.5301225    2788850.4 0.0095523324    336.17379    1824.9562   -38.383541    56.681717    317.87562            0 
  856000       855998    99.698413    10.229228    2801127.2 0.0095104665    340.05574    1825.6687   -38.731125     56.27114    322.51572            0 
  856500       856498     99.90653    10.369664    2813075.5 0.0094700713    338.76496    1827.4791   -36.196449    56.618955    318.34246            0 
  857000       856998    100.01127    11.418486    2823831.7 0.0094339991    334.79679    1825.0717   -40.925177    57.354573    318.36739            0 
  857500       857498    100.19865    10.878827    2828774.1 0.0094175163    333.03762    1826.1046   -38.611312    55.658654    315.99028            0 
  858000       857998    100.06388    11.720734    2824240.6 0.0094326333    337.00141    1828.0602   -38.958273    56.738109    319.22157            0 
  858500       858498     100.0226    11.986696    2821301.3 0.0094424603     335.8424    1826.2861   -42.282129    56.146436     321.9781            0 
  859000       858998    100.09644    10.725818    2818662.5 0.0094513003    332.12682    1823.6709   -41.837775    56.317177    317.64742            0 
  859500       859498    99.909759    10.292237    2825269.6 0.0094291979    333.44563    1822.2079   -42.215309     55.58342    320.07751            0 
  860000       859998    99.922144    10.521821      2824949  0.009430268     333.9099    1822.8567   -42.155945    56.412471    319.65337            0 
  860500       860498    100.25297    5.9801606    2826065.4 0.0094265426    326.69059     1820.567   -47.239181    56.028315    317.90146            0 
  861000       860998    99.730322    6.6257962    2828001.2   0.00942009    335.76844    1821.8569    -42.00709    57.881295    319.89424            0 
  861500       861498    100.21465    4.8817973      2828905 0.0094170804    331.99004    1825.2955   -43.264545     58.10683    317.14776            0 
  862000       861998    100.15287    5.5836286      2838410 0.0093855453     332.4772    1824.8621    -41.64991    56.433829    317.69329            0 
  862500       862498     99.60265    9.4937454    2832145.4 0.0094063058    341.13792    1825.3239   -36.831394    55.782115     322.1872            0 
  863000       862998    99.834104    8.6991649    2825532.1 0.0094283219    338.52313     1826.158   -41.744816     57.80671    322.46124            0 
  863500       863498    100.19734    9.8708226    2825923.8 0.0094270148    335.72735    1828.7749   -40.087085    56.484293    319.33015            0 
  864000       863998    100.19311    11.451431    2830303.6 0.0094124269    333.77395    1826.7585    -39.30734    56.285425    316.79586            0 
  864500       864498    100.09411    10.370172    2837291.6 0.0093892451    337.32361     1828.833   -38.398464    55.456726    320.26535            0 
  865000       864998    100.06855    11.867282    2834665.8 0.0093979423    342.41491    1833.5433   -34.525836    57.383407    319.55734            0 
  865500       865498    100.08158    12.886714    2827703.4 0.0094210821    339.31183    1830.6344   -36.988763    55.666133    320.63446            0 
  866000       865998    99.956176    12.868667    2827880.7 0.0094204914    338.09526    1827.5492    -36.29028    55.901698    318.48384            0 
  866500       866498     100.0661    10.800522    2835319.5 0.0093957756    335.69336    1826.7852   -41.817583    58.255336    319.25561            0 
  867000       866998    99.941868    9.8320903    2843432.7 0.0093689666    336.46471    1825.7054   -38.675957    56.656329    318.48434            0 
  867500       867498    99.962563    11.137086    2840962.6 0.0093771123    340.83902    1830.3881   -36.667293    56.591221    320.91509            0 
  868000       867998    99.951131    11.026046    2839620.8 0.0093815433      338.257    1827.6357   -39.486763    56.628452    321.11531            0 
  868500       868498    99.982756     11.42049    2830812.3 0.0094107356    335.28887    1825.1389    -41.37664    55.967249    320.69826            0 
  869000       868998    99.765432    10.963274    2816039.4  0.009460104    338.94221    1825.5538   -40.324112    58.443713    320.82261            0 
  869500       869498    99.902552    9.3693927    2808038.3 0.0094870594    339.36978    1828.0246    -37.88669    56.562261    320.69421            0 
  870000       869998     100.1614     9.189499      2807891 0.0094875568    337.13332    1829.6453   -40.397945    57.007539    320.52373            0 
  870500       870498    100.03605      11.4556    2806411.4 0.0094925589    335.83589      1826.48   -41.410084    56.196592    321.04938            0 
  871000       870998    99.986947    11.930413    2807531.3 0.0094887725    337.61657     1827.529   -39.485818    57.728889     319.3735            0 
  871500       871498    99.879134    13.213129    2807351.4 0.0094893806    340.25973    1828.5656   -39.159101    58.233042    321.18579            0 
  872000       871998    100.50107    12.170731      2808969 0.0094839159    330.14704    1827.7205    -40.93134    54.384615    316.69377            0 
  872500       872498    99.908784    12.627912    2807532.3 0.0094887691    337.94739    1826.6951    -39.14589    57.440775     319.6525            0 
  873000       872998    100.04767    10.160961      2803341 0.0095029559    336.88831    1827.7056   -40.743795    55.958789    321.67331            0 
  873500       873498    100.37186    10.442357    2795189.7 0.0095306682    329.47849    1825.1266   -43.015041    56.586015    315.90752            0 
  874000       873998    99.758992    11.162396    2788914.8 0.0095521118    342.25886    1828.7745   -38.120041    59.335894    321.04301            0 
  874500       874498    99.897858    9.9295351    2775637.4 0.0095978049     337.1485    1825.7334     -38.9671    54.557045    321.55856            0 
  875000       874998    99.542663    9.1950632    2778595.7 0.0095875861    338.45646    1821.7486   -43.281421     57.86171    323.87618            0 
  875500       875498    100.00328    5.7386353    2787999.8 0.0095552465    337.80041    1827.9562   -40.129508    58.774376    319.15554            0 
  876000       875998    100.08697    5.7100928    2793756.6 0.0095355573    332.17156    1823.5745   -42.072032     55.24924    318.99435            0 
  876500       876498    100.02692    7.5878989    2807734.5 0.0094880859    334.42552    1824.9336   -40.617306    58.399877    316.64295            0 
  877000       876998    99.708409    7.8406945    2822180.5 0.0094395188    344.19897    1829.9609   -37.495173    58.955596    322.73855            0 
  877500       877498    99.901593    9.8059143    2831025.7 0.0094100262    342.58445     1831.225   -39.714734    56.230013    326.06917            0 
  878000       877998    100.16109    7.7087939    2842052.3 0.0093735173    339.55625    1832.0637   -36.497475    56.036565    320.01716            0 
  878500       878498    99.975783    9.6288203      2833708 0.0094011189    339.62441    1829.3705   -40.375161    58.842834    321.15673            0 
  879000       878998    99.976783     9.066056    2830374.6 0.0094121907     336.1557    1825.9167   -43.932594     57.33898    322.74931            0 
  879500       879498     99.82849    10.577703    2829940.1 0.0094136358    336.11526    1823.6665   -41.576822    55.104125    322.58795            0 
  880000       879998     100.0719     9.712082    2837091.3 0.0093899078    338.31554    1829.4939   -40.088947    58.556328    319.84816            0 
  880500       880498    99.565489    10.754971    2843440.9 0.0093689394    346.01155    1829.6438   -37.032587    58.433553    324.61058            0 
  881000       880998    100.25486    7.7004018    2842778.7 0.0093711219    336.43595    1830.3406   -41.180162    56.390185    321.22593            0 
  881500       881498    99.931128    7.1203218    2840413.2 0.0093789262    334.98905    1824.0697   -43.863703    57.474174    321.37858            0 
  882000       881998    99.958929    7.3817433    2839535.9  0.009381824    335.71473    1825.2097   -41.649711    59.037566    318.32687            0 
  882500       882498    99.856159    9.3453683    2838831.3 0.0093841524    334.97441     1822.938   -44.141711    56.801968    322.31415            0 
  883000       882998    99.892838    8.8357777    2841541.4 0.0093752025     338.4792    1826.9893   -39.230868    57.224194    320.48588            0 
  883500       883498    99.980616    10.587958    2832832.6 0.0094040241    340.09466    1829.9128   -39.065776     58.40561    320.75482            0 
  884000       883998    99.880421    15.222453    2817348.7 0.0094557077    342.73636    1831.0614   -39.671219    57.465786    324.94179            0 
  884500       884498    100.03127    15.416506    2810286.6 0.0094794696    340.43944    1831.0123   -37.453081    57.618148    320.27437            0 
  885000       884998    99.962284    14.587676    2814114.8 0.0094665741    342.15937    1831.7043   -36.604928    58.352931    320.41136            0 
  885500       885498    99.852471     13.34279      2816845 0.0094573987    346.78433    1834.6929   -33.333568    57.876384    322.24151            0 
  886000       885998    99.704068    12.167025    2807626.6 0.0094884506     344.2512    1829.9484   -38.439721    57.465353    325.22557            0 
  886500       886498    100.00214    9.4676429    2804831.4 0.0094979062    343.67798    1833.8167   -35.927388    59.409946    320.19542            0 
  887000       886998    100.07593    10.262597    2812608.6 0.0094716436    338.56428    1829.8027    -37.21085    55.823532    319.95159            0 
  887500       887498    100.04856    8.5884829    2824637.8 0.0094313068    341.75281    1832.5833    -35.70425    59.327743    318.12932            0 
  888000       887998    100.12854    6.2901378    2828481.5 0.0094184903    340.36386    1832.3861   -40.258458    59.931935    320.69038            0 
  888500       888498    99.959408    6.0161859    2820578.8 0.0094448792    339.73133    1829.2334   -40.845595     57.98959    322.58734            0 
  889000       888998    99.912172    5.5328386    2804788.1 0.0094980529    337.16646    1825.9647    -44.72078    57.990977    323.89626            0 
  889500       889498    99.924045     5.161936    2803881.4 0.0095011243    344.20158    1833.1767   -37.700672    58.376869    323.52539            0 
  890000       889998    100.08728    5.6841496    2797079.2 0.0095242302    340.59508    1832.0026   -36.958049    58.924153    318.62897            0 
  890500       890498    100.13515    7.5052597    2790954.8   0.00954513    337.26008     1829.381   -42.794805    58.595816    321.45906            0 
  891000       890998    100.10887    9.0442495    2793501.8  0.009536427    333.47656    1825.2058   -46.642441    58.104801     322.0142            0 
  891500       891498    99.897956    9.2754543    2791953.9 0.0095417141    332.55556    1821.1419   -47.324452    58.622239    321.25777            0 
  892000       891998    99.781928    9.3865289    2783395.7 0.0095710523    336.89824    1823.7557   -44.602998    60.180627    321.32061            0 
  892500       892498    100.02727    12.440034    2772297.7  0.009609367    334.41437    1824.9276   -44.984369    57.584133     321.8146            0 
  893000       892998    99.968182    12.949758    2764073.6 0.0096379582    330.05169    1819.6845   -50.332513    57.514295     322.8699            0 
  893500       893498    100.17164    9.7355745    2761708.5  0.009646212    329.43864    1822.1032   -46.303954    57.908925    317.83367            0 
  894000       893998    100.09306    7.9151157    2767864.2 0.0096247589    337.09999    1828.5936   -42.419997    58.088099    321.43189            0 
  894500       894498    99.814591    8.4337942    2774875.5 0.0096004401    339.12032    1826.4645   -42.457616    57.902331     323.6756            0 
  895000       894998     100.1723    7.4400723    2784889.3 0.0095659192    338.28542    1830.9598   -39.063734    58.090461     319.2587            0 
  895500       895498     100.0353    9.1591387    2789200.4 0.0095511336    339.07947    1829.7124    -40.81235    58.209084    321.68274            0 
  896000       895998    99.814945    11.470382    2797963.6 0.0095212197    342.41742    1829.7669   -40.836107    59.660507    323.59302            0 
  896500       896498    99.825586    13.093023    2809433.3 0.0094823487    340.07153    1827.5795   -41.351141     57.66962    323.75305            0 
  897000       896998    100.42368    12.939048    2816083.7 0.0094599552    332.38825    1828.8085   -44.963214    59.020419    318.33105            0 
  897500       897498    100.14432    13.722225    2801756.2 0.0095083312    338.83981    1831.0973   -42.935375    59.432794    322.34239            0 
  898000       897998    99.776819    14.082391    2776935.9 0.0095933168    340.96921    1827.7505   -43.458504    56.794269    327.63345            0 
  898500       898498    99.673705    12.576143      2751664 0.0096814238    341.77608    1827.0209   -40.437207    58.510368    323.70292            0 
  899000       898998    100.19919    9.5755189    2727271.8 0.0097680127    338.47854    1831.5537   -42.829366    60.352028    320.95588            0 
  899500       899498    100.17517    7.1725693      2705334 0.0098472227    338.24364    1830.9607   -38.683351    58.636426    318.29057            0 
  900000       899998    99.985818    9.0472086    2694454.7 0.0098869822     339.0696    1828.9652   -42.536418    59.161867    322.44415            0 
  900500       900498    100.00537    9.3544139    2702422.9 0.0098578302    335.86588    1826.0528   -45.203904    59.144744    321.92504            0 
  901000       900998    99.998917    7.4653224    2725071.2 0.0097759007    335.95073    1826.0415   -45.371964    58.108933    323.21376            0 
  901500       901498    99.603653    9.2530185      2737615 0.0097311074    344.84871    1829.0497   -39.604675    58.900538    325.55285            0 
  902000       901998    99.943039    6.2979049    2738193.8 0.0097290507    346.14032    1835.3985   -37.598453    59.843593    323.89518            0 
  902500       902498    100.14155    4.3078487      2728201 0.0097646858    343.94634    1836.1625   -37.276152     59.83412    321.38837            0 
  903000       902998    100.03132     5.744193    2710500.9 0.0098284513    340.64529     1831.219   -40.311389    59.036612    321.92007            0 
  903500       903498    99.869503    6.7185317    2699162.8 0.0098697365    339.88549    1828.0479   -42.271513     58.30623    323.85077            0 
  904000       903998    100.11316    7.0113868    2690526.7 0.0099014168    339.75806    1831.5512   -40.688522    59.811495    320.63509            0 
  904500       904498    99.902098    8.4668711    2687552.8 0.0099123732    338.88694     1827.535   -41.261823    60.153674    319.99509            0 
  905000       904998    100.10967    10.123216    2690550.7 0.0099013283    339.40654    1831.1476   -40.647198    58.324106    321.72963            0 
  905500       905498    99.729148    13.704644    2686921.9 0.0099147003    343.21749    1829.2885   -40.828071    60.693329    323.35223            0 
  906000       905998    100.07282    15.876402    2683600.1  0.009926973    334.26704     1825.459   -46.170739    57.475733    322.96205            0 
  906500       906498    100.20613    16.224325    2682678.3  0.009930384    334.67758    1827.8561    -45.63062    59.621975    320.68623            0 
  907000       906998    100.16406    14.444027    2685154.2 0.0099212277    335.91084    1828.4624   -41.377162    60.199491    317.08851            0 
  907500       907498     99.84964    14.901242    2681188.1 0.0099359033    343.43934    1831.3058    -39.73416    56.713264    326.46023            0 
  908000       907998     100.0617    12.201505    2671573.3 0.0099716621    343.06909    1834.0955   -38.699094    61.426198    320.34198            0 
  908500       908498    99.903353    13.558867    2670701.4 0.0099749176    343.08124     1831.748    -40.18282    59.766344    323.49772            0 
  909000       908998    100.06083    10.477772    2672267.3 0.0099690723      341.456    1832.4693   -40.857713    59.468091    322.84563            0 
  909500       909498    99.769154    9.5714855    2673332.5 0.0099650999    346.81524    1833.4823   -38.956389    61.434932     324.3367            0 
  910000       909998    100.11385    5.4317909    2671601.1 0.0099715581    339.80127    1831.6047   -41.366302    60.227289    320.94028            0 
  910500       910498    100.03951    2.5868525    2672591.8 0.0099678619    340.49078    1831.1864    -42.99309     60.51488    322.96899            0 
  911000       910998    99.940752   0.57356387    2682043.2 0.0099327355    337.78218    1827.0063   -47.398718    60.880531    324.30037            0 
  911500       911498    100.00468 -0.010427187      2706514 0.0098429294    333.90252    1824.0792    -49.17597    60.635333    322.44315            0 
  912000       911998    99.828199     1.380894    2722357.4 0.0097856459    343.99085    1831.5378   -41.758648    59.816786    325.93272            0 
  912500       912498    100.03552    3.2514322    2719117.6 0.0097973056    341.80616    1832.4424   -42.814741     61.42341    323.19749            0 
  913000       912998    99.992967    3.2294411    2710618.8 0.0098280239    339.86147    1829.8636   -45.085237    60.565923    324.38078            0 
  913500       913498    99.891437    5.8959604    2701521.5 0.0098611193    338.95836    1827.4476   -47.493889    59.180647     327.2716            0 
  914000       913998    100.04057    6.5071297    2695605.8 0.0098827604    338.15456    1828.8661   -46.367586    60.440553     324.0816            0 
  914500       914498    100.23046    6.9866535    2691526.7 0.0098977378     338.8295    1832.3706   -42.095673    60.727585    320.19759            0 
  915000       914998    100.11217    11.182004      2681282 0.0099355554    336.29618    1828.0746   -46.499627    60.245822    322.54999            0 
  915500       915498    99.545273    14.518587      2696178  0.009880663     345.7673    1829.0983   -43.841818    61.236025    328.37309            0 
  916000       915998    99.952783    14.592093    2711762.1 0.0098238802     345.3198    1834.7232   -38.522487    59.645959    324.19632            0 
  916500       916498    100.37014     16.03716    2708247.2 0.0098366301    337.52897    1833.1514   -43.784091    60.735985    320.57707            0 
  917000       916998    100.06091    16.856506    2702570.5 0.0098572919    338.22464    1829.2392   -45.908008    61.586401    322.54625            0 
  917500       917498    100.31423    15.000573      2696206 0.0098805602    333.61368    1828.4029   -48.618055    59.295042    322.93669            0 
  918000       917998    99.844381    16.284235    2686698.3 0.0099155255    343.48745    1831.2755   -44.973436    61.433475    327.02742            0 
  918500       918498     100.1493     14.24814    2675140.7 0.0099583645    339.48542     1831.817    -44.97733    60.695521    323.76723            0 
  919000       918998    99.936638    14.315698    2662634.3  0.010005139     343.0152     1832.178   -41.794265    60.213095    324.59637            0 
  919500       919498    100.25509    10.883221    2657400.8  0.010024843    338.55651    1832.4646   -43.992302    61.068098    321.48071            0 
  920000       919998    100.35478    10.201278    2649122.1  0.010056171    335.78714    1831.1807   -46.944007    59.837802    322.89335            0 
  920500       920498    99.749856    11.197447    2647754.9  0.010061364    348.23642     1834.616   -40.372117    62.287232    326.32131            0 
  921000       920998    99.890959    9.6488855    2645609.6  0.010069523    349.44233    1837.9244   -38.081538    61.182199    326.34167            0 
  921500       921498    100.16637    8.0213299    2651143.9  0.010048503    344.72861    1837.3146   -40.698352    59.851825    325.57513            0 
  922000       921998    99.823626    6.6350794    2661943.5  0.010007735    348.58481    1836.0636   -38.731415    63.455078    323.86115            0 
  922500       922498    100.09893     5.575862    2669046.2 0.0099811033    341.25209    1832.8332   -43.711855    62.029011    322.93494            0 
  923000       922998    100.08666    8.6590325    2685695.8 0.0099192267    344.62103    1836.0193   -43.909879    61.318988    327.21192            0 
  923500       923498    99.606962    10.648456    2700834.6 0.0098636273     346.6254    1830.8757   -42.924462    62.773406    326.77645            0 
  924000       923998    100.13989    10.540458    2714737.1 0.0098131145    344.05717    1836.2486   -43.080571    60.101516    327.03622            0 
  924500       924498      100.017    10.660734    2717466.7 0.0098032576    348.11729    1838.4776   -40.249616    63.890588    324.47632            0 
  925000       924998    100.13593     11.84902    2720663.3 0.0097917394     348.2396     1840.372   -38.411016    61.139999    325.51061            0 
  925500       925498     100.1775    11.596048    2721898.4 0.0097872961    344.38246    1837.1343   -42.053457    62.366047    324.06987            0 
  926000       925998    99.747761    11.346922    2729240.9 0.0097609652    349.92314    1836.2714   -40.299142    62.347072    327.87521            0 
  926500       926498    100.07758    9.6669998      2729946 0.0097584444    349.50038    1840.7633   -39.583613    62.046432    327.03756            0 
  927000       926998    99.903897    8.8804029    2730356.6 0.0097569766    348.52137    1837.1963   -40.030068     62.38535    326.16608            0 
  927500       927498    100.17143    7.7409093    2730295.4 0.0097571954    345.64761     1838.309   -40.979433    60.237339    326.38971            0 
  928000       927998    100.07448    6.7635805    2727418.1 0.0097674889    348.97798    1840.1947    -37.38125    63.329229       323.03            0 
  928500       928498    99.863191    7.7469367      2719084 0.0097974267    351.98817    1840.0565   -40.458256    62.588316    329.85811            0 
  929000       928998    100.00289    8.7082631    2714251.3 0.0098148708     347.8587    1838.0087   -41.517547    62.403035    326.97321            0 
  929500       929498    100.10309    9.6346275      2710576 0.0098281788    342.64107    1834.2842   -46.239791    62.747948    326.13292            0 
  930000       929998    99.967157    12.383628    2711302.3  0.009825546     347.2369    1836.8544   -41.088405    61.608958    326.71635            0 
  930500       930498     99.94299     14.73231    2711918.5 0.0098233135    351.58175    1840.8392    -39.74476    61.190354    330.13616            0 
  931000       930998    100.04261    15.004874    2712994.2 0.0098194186     347.6429    1838.3847   -39.160454    63.321414    323.48194            0 
  931500       931498    99.981985    15.520575    2714316.6 0.0098146347    347.62166    1837.4602   -41.871423    62.791041    326.70205            0 
  932000       931998    100.02556    15.744978    2702760.7 0.0098565979    346.85986    1837.3477   -42.486067    62.741503    326.60442            0 
  932500       932498    100.30387    10.154233    2693996.7 0.0098886631    344.55333    1839.1882    -40.08719    62.123467    322.51705            0 
  933000       932998    100.03923    9.9952806    2692640.9 0.0098936423    350.65972    1841.3512   -39.567995    60.794913    329.43281            0 
  933500       933498    100.08296    8.6369028    2695382.2 0.0098835802    348.73396    1840.0771   -41.084184    63.420233    326.39791            0 
  934000       933998     100.0145    6.5957057    2699688.9 0.0098678133    347.34898     1837.672    -42.06085    63.847316    325.56251            0 
  934500       934498     99.92768    7.4566844    2701190.9 0.0098623264    351.89033    1840.9196   -40.677289    61.924086    330.64353            0 
  935000       934998      100.104    6.3606585    2691211.2 0.0098988982    346.65397    1838.3106   -40.497123    62.582333    324.56876            0 
  935500       935498    100.12162    7.1115092    2684003.6 0.0099254806    348.97035    1840.8895   -38.646951    63.106465    324.51084            0 
  936000       935998    99.780418    7.2150944      2678562 0.0099456445    349.00647    1835.8414   -43.181195    63.917454    328.27021            0 
  936500       936498    100.13265    7.5325659    2680287.6 0.0099392417    346.87935    1838.9629    -42.27104    62.228914    326.92148            0 
  937000       936998    99.757378    6.7729161    2678928.2  0.009944285    347.94467    1834.4363   -44.854941    62.083219    330.71639            0 
  937500       937498    100.26102    6.0929694    2676071.1  0.009954902    341.88806    1835.8844   -45.261071    62.549475    324.59966            0 
  938000       937998    100.10336    7.7916512    2674539.3 0.0099606035     344.5218     1836.169   -45.132452    62.899546    326.75471            0 
  938500       938498    99.889553    9.9394736    2673073.5 0.0099660655    347.49021    1835.9514   -43.844077    63.349346    327.98494            0 
  939000       938998     100.0238    10.009913    2665087.4 0.0099959295    348.78433     1839.246   -42.866626    63.136568    328.51439            0 
  939500       939498    99.982968    11.282319      2649156  0.010056043    340.94171    1830.7949   -47.187995    64.029049    324.10065            0 
  940000       939998    100.05643    12.423728    2642031.2  0.010083161    343.05977    1834.0076   -45.412104    63.188239    325.28363            0 
  940500       940498    100.17428    11.116986    2635084.5  0.010109743     340.3921     1833.096    -48.11541     61.43461     327.0729            0 
  941000       940998    99.947331     12.87828      2627049  0.010140666    347.25494    1836.5771   -41.502597    62.802374    325.95517            0 
  941500       941498    99.796664    14.838646    2619205.8  0.010171032    347.78171    1834.8587   -43.803455    63.172372    328.41279            0 
  942000       941998     100.0362    14.033911    2621568.2  0.010161867    344.93098    1835.5774   -43.687372    61.641966    326.97639            0 
  942500       942498    100.08514    14.927267    2627326.2  0.010139596    344.72386    1836.0995   -44.580971    63.339303    325.96553            0 
  943000       942998    99.774616    17.000485      2642492  0.010081403    348.24945    1834.9979   -41.853791    63.107574    326.99566            0 
  943500       943498    100.28084     16.31004    2660713.3  0.010012362    346.09397    1840.3857   -41.436699    62.807942    324.72273            0 
  944000       943998    99.801934    17.446191    2668660.6 0.0099825453    350.74758    1837.9031   -40.755289     63.64157     327.8613            0 
  944500       944498    100.21547    14.559102    2668594.2 0.0099827941    350.78973    1844.1074    -36.32617    62.737486    324.37841            0 
  945000       944998     100.2336    11.550354    2664144.2 0.0099994686    346.24598    1839.8337   -40.463469    62.293479    324.41597            0 
  945500       945498    99.917702    12.437905    2662084.4  0.010007206    349.27882    1838.1594   -42.342618    62.344691    329.27675            0 
  946000       945998    99.860301    10.864896    2659771.2  0.010015909     348.8773    1836.9026   -44.242016    65.518788    327.60053            0 
  946500       946498     100.1134     8.779525    2657586.4  0.010024143    346.15186    1837.9486   -42.392778     63.56633    324.97831            0 
  947000       946998    99.743918    9.1794434    2658849.7   0.01001938    350.94731    1837.2384   -39.939839    63.662501    327.22464            0 
  947500       947498    100.19713    5.9909397    2659584.8  0.010016611    344.33161    1837.3761   -43.926722    62.622649    325.63568            0 
  948000       947998    100.07802     5.718694    2662264.5  0.010006529    343.15332    1834.4229   -46.350199    64.721029    324.78249            0 
  948500       948498    99.865643    6.8110012    2662925.7  0.010004044    349.21414     1837.319   -43.624178    65.466732    327.37159            0 
  949000       948998     100.0157    8.2039068    2662406.1  0.010005997    348.22146    1838.5624   -42.007453    64.094684    326.13423            0 
  949500       949498    100.01247    8.9675144    2659921.7  0.010015342     353.1757    1843.4685   -39.253753    64.994879    327.43458            0 
  950000       949998    100.00801    8.6992394    2654313.8  0.010036502    346.61595    1836.8423    -44.77968    64.177297    327.21833            0 
  950500       950498    99.619857    9.2113819    2652538.5   0.01004322    354.02901    1838.4714    -40.98902    65.222219    329.79581            0 
  951000       950998    99.847873    9.9861734    2645387.2  0.010070369    354.31178    1842.1519   -39.614781    64.609597    329.31697            0 
  951500       951498    100.38956    5.7277375    2639204.6   0.01009396    344.38899    1840.3008   -41.636976     62.92112    323.10484            0 
  952000       951998    99.926631    7.2594286      2630144  0.010128733    352.12017    1841.1338    -39.92172    64.998391     327.0435            0 
  952500       952498    99.803113    10.726185    2635843.5  0.010106831    352.98085     1840.154   -40.959782    62.430208    331.51042            0 
  953000       952998    99.812937    9.5445024      2647361  0.010062861    356.26325    1843.5828   -37.372737    64.258452    329.37753            0 
  953500       953498    100.06516    8.4839037    2660041.2  0.010014892    349.49613     1840.574   -42.630441    67.001623    325.12494            0 
  954000       953998    100.03247    9.2995543    2674441.5 0.0099609679    347.88575    1838.4765   -43.067587    63.352264    327.60107            0 
  954500       954498    100.05515    8.7676414      2679966 0.0099404345    349.55325     1840.482   -42.814955    63.149026    329.21918            0 
  955000       954998    99.937797    7.6048951    2680667.4 0.0099378335    353.49411    1842.6742   -40.795741    66.854388    327.43547            0 
  955500       955498    99.918494    9.7926284    2677979.8 0.0099478071    353.76471    1842.6571   -42.031665    64.986073     330.8103            0 
  956000       955998    99.691583    8.8350132    2685909.2 0.0099184386    352.95462    1838.4658   -39.593117    63.173249    329.37449            0 
  956500       956498    100.00879    8.2435525    2686832.8 0.0099150293    349.48575    1839.7236   -43.220146    65.854314    326.85158            0 
  957000       956998    100.27283    9.5407852    2695338.1 0.0098837418     342.4664    1836.6388   -45.646306    64.888775    323.22393            0 
  957500       957498    99.478029    12.109565    2707435.6 0.0098395786    361.25804    1843.5871   -37.791832    64.573014    334.47686            0 
  958000       957998    100.01905    8.4500171    2711758.8  0.009823892    352.97494    1843.3658   -40.591622    65.418128    328.14843            0 
  958500       958498    100.01369    7.1992439    2710559.7 0.0098282381    354.16685    1844.4778   -41.052842    64.768722    330.45097            0 
  959000       958998    99.606662    7.8552696    2709584.3 0.0098317762    357.37968    1841.6255   -38.215826    65.581886    330.01362            0 
  959500       959498    100.15879     6.048108    2701288.8  0.009861969    355.46194     1847.935   -37.673701    64.494306    328.64134            0 
  960000       959998    100.15502    5.0747357    2693937.6   0.00988888    350.82798    1843.2449   -41.666156    66.821448    325.67269            0 
  960500       960498    99.772624    8.9176944    2694490.7 0.0098868504    357.67399    1844.3928   -40.291607    64.550044    333.41555            0 
  961000       960998    99.668076    11.012577    2698755.2 0.0098712273    354.52082    1839.6817   -41.215006     65.56077    330.17506            0 
  961500       961498    99.906921    10.958385    2709611.8 0.0098316763    352.75561    1841.4756     -41.1796    66.436301    327.49891            0 
  962000       961998    99.975525    10.253908    2718259.8 0.0098003971    350.25156    1839.9938   -43.150363    64.648775    328.75314            0 
  962500       962498    99.943606    8.4149399    2722893.8 0.0097837182    352.76426    1842.0309   -42.587264    64.660281    330.69124            0 
  963000       962998    99.880897    8.5854182    2721897.5 0.0097872994    353.33454    1841.6667   -41.655164    66.843431    328.14627            0 
  963500       963498    100.06396    7.6330708    2718280.6 0.0098003223    350.11303     1841.173   -45.358329    66.913884    328.55748            0 
  964000       963998    99.722162    10.815133      2721885 0.0097873444     358.0605    1844.0274   -39.258223    65.252709    332.06601            0 
  964500       964498     99.80312    10.500935    2718117.3 0.0098009112    354.19935    1841.3726   -43.271543    65.306284    332.16461            0 
  965000       964998    100.09889    11.725005    2710545.6 0.0098282891    349.00084    1840.5813   -45.503464    66.942133    327.56217            0 
  965500       965498    100.42263    8.2321263    2698093.4 0.0098736487    343.02902    1839.4336   -45.289994    64.720328    323.59869            0 
  966000       965998    100.01808    9.0996291    2693497.2 0.0098904971    349.83807    1840.2145   -44.661301    65.773836    328.72554            0 
  966500       966498    100.00041    9.4618937    2688854.7 0.0099075738    347.88719    1838.0002   -49.265659    66.999097    330.15375            0 
  967000       966998    99.994757    11.585444    2694368.8 0.0098872975    348.04131    1838.0701   -46.179619    64.147263    330.07367            0 
  967500       967498    100.06191    10.831907    2696421.4  0.009879771    348.19562    1839.2252   -46.223441    65.997037    328.42203            0 
  968000       967998     100.0676    8.4398864    2704461.2 0.0098504004    345.26514    1836.3794   -48.939976     66.55402     327.6511            0 
  968500       968498    100.11498    10.748078    2698466.1 0.0098722849    350.27283    1842.0931   -43.841951    64.697914    329.41686            0 
  969000       968998    100.04249     11.13143    2689441.7 0.0099054113    349.25855    1839.9986   -44.789285    65.552773    328.49506            0 
  969500       969498    99.911749    9.5818818    2683579.7 0.0099270487    354.90925    1843.7012   -40.018682    66.443393    328.48454            0 
  970000       969998    100.00436    8.1476406    2681377.1 0.0099352029    358.48855    1848.6604   -35.825659    66.440299    327.87391            0 
  970500       970498    99.945551     10.60345    2681174.4 0.0099359543    353.24999    1842.5456   -43.595433    65.969721     330.8757            0 
  971000       970998    100.14992    9.1143463    2690355.7  0.009902046    352.69314    1845.0341   -40.906606    65.332579    328.26717            0 
  971500       971498    100.11106    8.3464665    2696711.9 0.0098787066    356.48808      1848.25    -39.89976     65.06021    331.32763            0 
  972000       971998    99.780482    9.5072475    2694727.4 0.0098859816    359.07192    1845.9078   -41.144312    67.293052    332.92318            0 
  972500       972498    99.955179    10.512892    2693262.9 0.0098913573    347.93775    1837.3768   -46.503384    64.852913    329.58823            0 
  973000       972998    100.32392    11.230837      2705132 0.0098479579    347.32225     1842.256   -43.530831    64.894473    325.95861            0 
  973500       973498    99.937981     12.45777    2716741.4 0.0098058747    351.56965    1840.7524   -44.413475    65.092052    330.89107            0 
  974000       973998    99.714981    12.226753    2737602.8  0.009731151    354.14042    1840.0003   -43.886956    67.141092    330.88628            0 
  974500       974498    99.633218     9.734836    2744694.7 0.0097060071    358.17678    1842.8183   -40.506826    65.855162    332.82845            0 
  975000       974998    99.833209    9.1999877    2750591.6 0.0096851986    356.21927    1843.8409   -40.726208    67.051563    329.89392            0 
  975500       975498    100.04403    8.1198086    2748188.8 0.0096936666    356.59954    1847.3626   -39.371204    66.817557    329.15319            0 
  976000       975998    99.947719     9.287187    2742891.7 0.0097123872    357.90051    1847.2284   -39.894828    65.368325    332.42702            0 
  976500       976498    99.716054    10.506103    2736311.8  0.009735742    363.79974    1849.6756   -38.485614    67.155583    335.12977            0 
  977000       976998    100.09832    9.5954553    2730438.2 0.0097566851    357.73586    1849.3079   -39.191072    66.532653    330.39428            0 
  977500       977498    99.971373    9.2513115    2733940.8 0.0097441852    359.23076    1848.9111   -36.150521    64.593617    330.78767            0 
  978000       977998    99.998507     11.13999    2732243.5 0.0097502387    358.75085    1848.8355    -39.07723    67.480188    330.34789            0 
  978500       978498     100.0135    11.206464    2732964.5 0.0097476664     355.8027    1846.1108   -42.748204    65.809354    332.74155            0 
  979000       978998    99.899928    9.0456838    2742231.6  0.009714725    362.58949    1851.2052   -35.525255     66.81612    331.29863            0 
  979500       979498    99.956395    9.4478639    2742893.9 0.0097123792    361.52666    1850.9839   -37.406739    68.766902     330.1665            0 
  980000       979998    100.22941     10.37604      2748699 0.0096918673      352.844    1846.3694   -42.763388    64.845767    330.76162            0 
  980500       980498    100.04033    10.736472    2753285.1 0.0096757238    359.11326    1849.8211    -39.64483    67.621057    331.13703            0 
  981000       980998    99.733423    10.697598    2748980.5 0.0096908748    358.40021    1844.5349   -41.829699    66.883763    333.34614            0 
  981500       981498    99.959858    10.656738    2751601.7 0.0096816431    358.49768    1848.0065   -40.029769    66.727567    331.79988            0 
  982000       981998    100.17701    10.251124    2749639.1 0.0096885537    357.87605    1850.6206   -37.920332    65.971567    329.82482            0 
  982500       982498    100.12906    10.907517    2739302.3 0.0097251136    359.08866    1851.1187   -37.743162    65.729242    331.10258            0 
  983000       982998    99.982532    13.117657    2735082.6 0.0097401175    360.39273    1850.2394   -38.566902    67.916478    331.04316            0 
  983500       983498    99.812461    14.320259    2734720.5 0.0097414071    359.18723    1846.4996    -42.56204     66.92982    334.81945            0 
  984000       983998     100.0782    12.038378    2736906.2 0.0097336276    360.12821    1851.4004   -38.888069    67.763443    331.25284            0 
  984500       984498    100.34423    12.474509    2735989.9 0.0097368874    357.73736    1852.9737    -38.38996    66.707702    329.41962            0 
  985000       984998    99.842389    15.554582    2738093.1 0.0097294085    365.33922    1853.0976   -35.685865    67.036863    333.98823            0 
  985500       985498    99.907227    15.178638    2739070.6 0.0097259363    360.89937    1849.6239   -37.330249    67.143496    331.08613            0 
  986000       985998    100.45288    13.386437    2754289.6  0.009672195     353.5429    1850.3982   -43.934645     67.30006    330.17749            0 
  986500       986498    99.685998    13.161709    2774092.9 0.0096031483     366.1351    1851.5631   -36.413261    68.951607    333.59675            0 
  987000       986998    100.11708    8.9947557    2785900.9 0.0095624457    362.00926    1853.8608   -37.234258    65.510376    333.73315            0 
  987500       987498    99.940388    7.1417274    2792304.9 0.0095405145    367.70301    1856.9217   -36.642225     67.84321    336.50203            0 
  988000       987998    100.09766      7.80871    2788725.8 0.0095527593    362.01616    1853.5784   -39.279255    69.449739    331.84568            0 
  988500       988498    100.42456    5.4247878    2790125.9 0.0095479655    351.50429    1847.9377   -45.111094    66.851123    329.76426            0 
  989000       988998    99.633038    7.6523685    2783000.3 0.0095724122    361.37805    1846.0169   -40.901475     69.54635    332.73318            0 
  989500       989498    100.25326    6.8250466      2789417 0.0095503921    354.27475    1848.1555   -42.468728    68.024828    328.71865            0 
  990000       989998    99.953447     8.380791    2797660.9 0.0095222498    361.42764    1850.8409   -41.424337    66.887367    335.96461            0 
  990500       990498    99.817222    8.6611612    2803457.8   0.00950256    362.40937    1849.7927   -40.311798     68.50458    334.21659            0 
  991000       990998    100.26171    8.6287063    2810366.5 0.0094791999    358.54019    1852.5469   -38.326686    68.344667    328.52221            0 
  991500       991498    99.852197    11.593806    2815007.9 0.0094635706     366.2778    1854.1823   -36.901688    68.945279    334.23421            0 
  992000       991998    99.773156    13.879452      2812449  0.009472181    366.30951    1853.0362   -35.439246    67.347395    334.40137            0 
  992500       992498    99.910106    14.785012    2803266.9  0.009503207     366.4553    1855.2227   -35.944046    67.059299    335.34005            0 
  993000       992998    99.718556    12.185904    2798150.6 0.0095205833    368.94592     1854.859    -38.62384    72.412074    335.15769            0 
  993500       993498    100.08171    10.464251    2798975.9 0.0095177761     358.9136    1850.2382   -39.615733    66.433319    332.09601            0 
  994000       993998    100.18108    8.5635913    2809025.9  0.009483724    357.46259    1850.2678    -39.16053    66.065566    330.55755            0 
  994500       994498     99.73965     8.289069    2817399.6  0.009455537    365.44986    1851.6773   -41.126018     72.73713    333.83875            0 
  995000       994998    100.04339    7.7931521    2823116.2   0.00943639    362.28633    1853.0398   -40.866791     66.95036    336.20276            0 
  995500       995498    99.866722    9.2604909    2821359.2 0.0094422665    362.66667    1850.7876   -40.040158    66.798205    335.90862            0 
  996000       995998    99.698114    8.4630359      2821291 0.0094424948    366.51787    1852.1264   -39.610053    70.756909    335.37102            0 
  996500       996498    100.24454     8.448704    2810144.7 0.0094799481    358.08554    1851.8363   -39.462781    67.822941    329.72538            0 
  997000       996998    99.965084    9.4186051    2803606.7 0.0095020553     363.4622    1853.0489   -38.783764    66.844522    335.40145            0 
  997500       997498    99.886952    6.4767697    2809290.7 0.0094828299    370.37468    1858.7971   -34.925013     70.98197    334.31772            0 
  998000       997998    99.606569     10.18016    2820913.8 0.0094437576    372.89732    1857.1417   -33.685657    68.651997    337.93098            0 
  998500       998498    100.22562    7.9965461    2827888.1 0.0094204668    363.45934    1856.9283   -36.054576     67.89264    331.62127            0 
  999000       998998    99.714986    10.061905    2824694.3 0.0094311182    368.15825    1854.0182   -38.752147    71.073637    335.83676            0 
  999500       999498    99.931846    10.269796    2826101.5 0.0094264222    361.58855    1850.6799   -42.971437    68.108881     336.4511            0 
 1000000       999998    100.36232    10.871017    2825913.3 0.0094270498    358.24687    1853.7527   -38.343776    67.829445     328.7612            0 
 1000002      1000000    100.34706     8.597223    2825907.5 0.0094270692    358.63265    1853.9112   -38.354393    67.972352    329.01469            0 
Loop time of 1010.21 on 8 procs for 1000000 steps with 5000 atoms

Performance: 85.527 ns/day, 0.281 hours/ns, 989.896 timesteps/s
100.0% CPU use with 8 MPI tasks x no OpenMP threads

MPI task timing breakdown:
Section |  min time  |  avg time  |  max time  |%varavg| %total
---------------------------------------------------------------
Pair    | 176.14     | 178.28     | 180.76     |  12.7 | 17.65
Bond    | 82.626     | 84.241     | 86.76      |  11.9 |  8.34
Kspace  | 548.92     | 552.85     | 556.46     |  10.6 | 54.73
Neigh   | 22.03      | 22.045     | 22.054     |   0.2 |  2.18
Comm    | 27.296     | 30.553     | 47.642     | 117.2 |  3.02
Output  | 0.94494    | 0.94624    | 0.94658    |   0.1 |  0.09
Modify  | 77.42      | 130.21     | 140.25     | 175.4 | 12.89
Other   |            | 11.09      |            |       |  1.10

Nlocal:        625.000 ave         686 max         551 min
Histogram: 1 0 1 1 0 0 2 1 1 1
Nghost:        967.500 ave        1041 max         862 min
Histogram: 1 1 0 0 0 2 1 0 1 2
Neighs:        6505.12 ave        7596 max        5083 min
Histogram: 1 0 1 0 1 1 1 1 0 2

Total # of neighbors = 52041
Ave neighs/atom = 10.408200
Ave special neighs/atom = 4.0000000
Neighbor list builds = 36134
Dangerous builds = 0

write_data   system_after_npt.data
System init for write_data ...
PPPM initialization ...
  using 12-bit tables for long-range coulomb (../kspace.cpp:340)
  G vector (1/distance) = 0.11394104
  grid = 15 15 15
  stencil order = 5
  estimated absolute RMS force accuracy = 0.035655005
  estimated relative force accuracy = 0.00010737399
  using double precision KISS FFT
  3d grid and FFT values/proc = 2197 512
Total wall time: 0:16:50
