LAMMPS (29 Sep 2021)

# ------------------------------- Initialization Section --------------------

include      "system.in.init"        # specify the style of force field used
  atom_style full
  units real
  bond_style harmonic
  angle_style harmonic
  dihedral_style opls
  improper_style harmonic
  pair_style lj/cut/coul/long 11.0 11.0
  pair_modify mix geometric
  special_bonds lj/coul 0.0 0.0 0.5
  kspace_style pppm 0.0001

# ------------------------------- Atom Definition Section -------------------

read_data    "system.data"
Reading data file ...
  orthogonal box = (0.0000000 0.0000000 0.0000000) to (103.50000 103.50000 103.50000)
  2 by 2 by 2 MPI processor grid
  reading atoms ...
  5000 atoms
  scanning bonds ...
  4 = max bonds/atom
  scanning angles ...
  6 = max angles/atom
  reading bonds ...
  4000 bonds
  reading angles ...
  6000 angles
Finding 1-2 1-3 1-4 neighbors ...
  special bond factors lj:    0        0        0.5     
  special bond factors coul:  0        0        0.5     
     4 = max # of 1-2 neighbors
     3 = max # of 1-3 neighbors
     3 = max # of 1-4 neighbors
     4 = max # of special neighbors
  special bonds CPU = 0.012 seconds
  read_data CPU = 0.069 seconds

# ------------------------------- Settings Section --------------------------

include      "system.in.settings"    # load the force field parameters
  pair_coeff 1 1 0.066 3.5
  pair_coeff 2 2 0.03 2.5
  bond_coeff 1 340.0 1.09
  angle_coeff 1 33.0 107.8
  set type 1 charge -0.24
Setting atom values ...
  1000 settings made for charge
  set type 2 charge 0.06
Setting atom values ...
  4000 settings made for charge
include      "system.in.charges"     # load the charge of each atom
  set type 1 charge -0.24
Setting atom values ...
  1000 settings made for charge
  set type 2 charge 0.06
Setting atom values ...
  4000 settings made for charge

# ------------------------------- Run Section -------------------------------


# -- minimization protocol --

thermo          500
minimize	1.0e-4 1.0e-6 100000 400000
WARNING: Using 'neigh_modify every 1 delay 0 check yes' setting during minimization (../min.cpp:188)
PPPM initialization ...
  using 12-bit tables for long-range coulomb (../kspace.cpp:340)
  G vector (1/distance) = 0.13982374
  grid = 15 15 15
  stencil order = 5
  estimated absolute RMS force accuracy = 0.025711481
  estimated relative force accuracy = 7.7429363e-05
  using double precision KISS FFT
  3d grid and FFT values/proc = 2197 512
Neighbor list info ...
  update every 1 steps, delay 0 steps, check yes
  max neighbors/atom: 2000, page size: 100000
  master list distance cutoff = 13
  ghost atom cutoff = 13
  binsize = 6.5, bins = 16 16 16
  1 neighbor lists, perpetual/occasional/extra = 1 0 0
  (1) pair lj/cut/coul/long, perpetual
      attributes: half, newton on
      pair build: half/bin/newton
      stencil: half/bin/3d
      bin: standard
Per MPI rank memory allocation (min/avg/max) = 9.951 | 9.952 | 9.957 Mbytes
Step Temp E_pair E_mol TotEng Press 
       0            0    13.473059    169.81587    183.28893    62.917711 
       2            0     13.46648    168.45644    181.92292    1.7188027 
Loop time of 0.00604847 on 8 procs for 2 steps with 5000 atoms

98.9% CPU use with 8 MPI tasks x no OpenMP threads

Minimization stats:
  Stopping criterion = energy tolerance
  Energy initial, next-to-last, final = 
      183.288930482805   181.923003048985   181.922915101875
  Force two-norm initial, final = 43.104107 0.12623321
  Force max component initial, final = 0.68269501 0.0017082284
  Final line search alpha, max atom move = 1.0000000 0.0017082284
  Iterations, force evaluations = 2 4

MPI task timing breakdown:
Section |  min time  |  avg time  |  max time  |%varavg| %total
---------------------------------------------------------------
Pair    | 0.0019045  | 0.0019535  | 0.0020036  |   0.1 | 32.30
Bond    | 0.00039323 | 0.00039834 | 0.00040662 |   0.0 |  6.59
Kspace  | 0.0030119  | 0.0030556  | 0.003105   |   0.1 | 50.52
Neigh   | 0          | 0          | 0          |   0.0 |  0.00
Comm    | 0.00031102 | 0.00033505 | 0.00034816 |   0.0 |  5.54
Output  | 0          | 0          | 0          |   0.0 |  0.00
Modify  | 0          | 0          | 0          |   0.0 |  0.00
Other   |            | 0.000306   |            |       |  5.06

Nlocal:        625.000 ave         625 max         625 min
Histogram: 8 0 0 0 0 0 0 0 0 0
Nghost:        1935.00 ave        1935 max        1935 min
Histogram: 8 0 0 0 0 0 0 0 0 0
Neighs:        11250.0 ave       11625 max       10875 min
Histogram: 2 0 2 0 0 0 0 1 1 2

Total # of neighbors = 90000
Ave neighs/atom = 18.000000
Ave special neighs/atom = 4.0000000
Neighbor list builds = 0
Dangerous builds = 0

# Optional: write the coordinates after minimization
write_data  	system_after_min.data
System init for write_data ...
PPPM initialization ...
  using 12-bit tables for long-range coulomb (../kspace.cpp:340)
  G vector (1/distance) = 0.13982374
  grid = 15 15 15
  stencil order = 5
  estimated absolute RMS force accuracy = 0.025711481
  estimated relative force accuracy = 7.7429363e-05
  using double precision KISS FFT
  3d grid and FFT values/proc = 2197 512


# -- simulation protocol --


timestep        1.0
dump            1 all custom 2500 traj_npt.lammpstrj id mol type x y z ix iy iz
thermo_style    custom step time temp press vol density pe etotal epair ebond eangle edihed
fix             fxnpt all npt temp 100.0 100.0 100.0 iso 1.0 1.0 1000.0 drag 1.0


# ----------------------------- Customization -------------------------------
variable	d equal density
variable 	pe equal epair

fix extra all print 100 "${d} ${pe}" file out.txt screen no

run             1000000
PPPM initialization ...
  using 12-bit tables for long-range coulomb (../kspace.cpp:340)
  G vector (1/distance) = 0.13982374
  grid = 15 15 15
  stencil order = 5
  estimated absolute RMS force accuracy = 0.025711481
  estimated relative force accuracy = 7.7429363e-05
  using double precision KISS FFT
  3d grid and FFT values/proc = 2197 512
Per MPI rank memory allocation (min/avg/max) = 8.866 | 8.867 | 8.872 Mbytes
Step Time Temp Press Volume Density PotEng TotEng E_pair E_bond E_angle E_dihed 
       2            0            0    1.7188027    1108717.9  0.024027777    181.92292    181.92292     13.46648 1.4398946e-05    168.45642            0 
     500          498 0.0004177936    1.5881362    1112156.9  0.023953479    181.83612    181.84235    13.379366 2.9696261e-05    168.45673            0 
    1000          998 0.0017704028    1.5916136    1119847.5  0.023788977    181.64206    181.66844    13.185457 2.1376618e-05    168.45658            0 
    1500         1498 0.0060514337    1.6823684    1129632.7  0.023582909    181.39907    181.48924    12.942545 4.2550517e-06    168.45652            0 
    2000         1998  0.018595845    1.8257844    1140064.1   0.02336713    181.14944    181.42654    12.692659 2.6249486e-05    168.45676            0 
    2500         2498  0.044307694    4.1671765    1152885.5  0.023107261    200.19673    200.85697    31.738816 8.9514964e-06    168.45791            0 
    3000         2998   0.22926308    5.5198503    1184719.4   0.02248636     213.4599    216.87616     45.00063 0.00012433356    168.45914            0 
    3500         3498    0.6940461    4.7093764    1222810.2  0.021785904    211.14124    221.48327    42.678996 0.00062731264    168.46162            0 
    4000         3998     2.198862     3.982376    1267078.1   0.02102477    208.34868    241.11408    39.885925 0.0025188165    168.46024            0 
    4500         4498    6.4134773    1.6600722      1306502  0.020390345    186.11618    281.68385    17.641175  0.010027668    168.46497            0 
    5000         4998    17.812981   -4.6697373    1337767.9  0.019913787    123.29156    388.72403   -45.278608  0.055902126    168.51427            0 
    5500         5498     43.21259   -2.3987206    1331973.3   0.02000042    136.41223    780.32604   -32.631967   0.29087871    168.75332            0 
    6000         5998    78.809345   -1.0059386    1332181.5  0.019997294    146.94742    1321.2909   -23.969259    1.0170211    169.89966            0 
    6500         6498    98.887376    5.5574998    1330447.9  0.020023351    208.44483    1681.9725    36.577408    1.6076545    170.25976            0 
    7000         6998    100.04211    5.6811854    1330760.6  0.020018646    212.24655    1702.9809    40.505098    1.7092381    170.03221            0 
    7500         7498    100.08219   -3.1907778      1331184   0.02001228    139.13221    1630.4638   -33.068664    1.7064632    170.49441            0 
    8000         7998    99.972551    4.2348392    1330944.7  0.020015878    210.68094    1700.3789    38.887402    1.7186934    170.07484            0 
    8500         8498    100.04436   -3.7572859      1331017   0.02001479    143.87414     1634.642   -28.439882     1.772553    170.54147            0 
    9000         8998    99.949634   -3.8460635    1331004.1  0.020014983    148.05436    1637.4108   -24.098809    1.7648162    170.38835            0 
    9500         9498    100.01667   -4.2236333    1331036.3  0.020014499    145.70324    1636.0586   -26.189809    1.8272252    170.06582            0 
   10000         9998    99.999655   -1.8212371    1330964.4  0.020015581    166.94355    1657.0453   -5.5781186    1.7836675      170.738            0 
   10500        10498    99.965023   -3.7004676    1331042.5  0.020014407     149.7637    1639.3494   -22.107295      1.80542    170.06557            0 
   11000        10998    100.07046    3.1048937    1330918.7  0.020016269    206.84746    1698.0043     34.86574    1.7960027    170.18572            0 
   11500        11498    99.921939   0.30861173    1330959.2   0.02001566    175.94338    1664.8871    3.6148489    1.7365081    170.59203            0 
   12000        11998    100.07156     3.436214    1330941.3  0.020015928    198.44265    1689.6159    26.486514    1.7256041    170.23053            0 
   12500        12498    100.00137    2.3414678    1330925.8  0.020016162    184.07911    1674.2064    11.804838    1.6312721      170.643            0 
   13000        12998    99.949324     5.333546    1330943.9   0.02001589    207.63424    1696.9861    35.847331    1.6511723    170.13574            0 
   13500        13498    100.14369    4.2281102    1330939.1  0.020015961    195.39498     1687.643    23.857055    1.6400972    169.89783            0 
   14000        13998    99.993603    3.9360476    1330802.4  0.020018018    194.21872    1684.2303     21.74528    1.6873212    170.78612            0 
   14500        14498    100.08962    4.5738987    1330923.4  0.020016198    203.93692    1695.3793    31.552364    1.7391387    170.64542            0 
   15000        14998    100.03225    4.1357817    1330961.4  0.020015626    204.32193    1694.9095    31.835549    1.6874744    170.79891            0 
   15500        15498    99.993432   0.56922138    1330943.1  0.020015902    176.08453    1666.0936    4.0032825    1.7253895    170.35586            0 
   16000        15998    100.06389  -0.30104272    1330984.7  0.020015276    173.00432    1664.0632    1.6491421    1.6931857    169.66199            0 
   16500        16498     99.97529  -0.29693853      1330956  0.020015707     177.7117    1667.4504    5.2222604    1.7762349    170.71321            0 
   17000        16998    99.959831  -0.90446979    1330972.2  0.020015464    175.92811    1665.4365    3.4460048      1.83973    170.64237            0 
   17500        17498    99.911689   -1.2488781    1330967.2  0.020015539    173.06666    1661.8577   0.64084576    1.8225769    170.60324            0 
   18000        17998    100.00382  -0.43056947    1330751.4  0.020018784    177.28141    1667.4453    4.7335812    1.8575055    170.69032            0 
   18500        18498    100.09783   0.25429254    1330873.7  0.020016945    179.51764    1671.0824    7.7529775    1.7326855    170.03198            0 
   19000        18998    99.996066   0.44916998    1330881.2  0.020016832    177.94423    1667.9926    5.6725978     1.719077    170.55256            0 
   19500        19498    100.03792    1.0291839      1330737  0.020019001    177.26798      1667.94    5.1695347    1.6869865    170.41145            0 
   20000        19998    99.924532    2.3367043      1330881  0.020016835    186.07752    1675.0599    14.428136    1.6675734    169.98181            0 
   20500        20498    99.981145    2.5044978    1330895.3  0.020016621    183.96295    1673.7889    11.370636    1.7443255    170.84799            0 
   21000        20998    100.05651    1.6791429    1330742.8  0.020018915    174.53407    1665.4831    2.3088211    1.6631019    170.56215            0 
   21500        21498    100.02596    1.8184953    1330852.6  0.020017262    176.40638    1666.9002    4.3008786     1.690036    170.41547            0 
   22000        21998     99.92779    3.3585618    1330817.9  0.020017784    191.57539    1680.6063    19.483431    1.6551353    170.43682            0 
   22500        22498    99.963063    1.7831532    1330838.1   0.02001748    180.46475    1670.0213    9.1040371    1.6447518    169.71596            0 
   23000        22998    99.915487    1.5273432    1330837.8  0.020017485    186.21417    1675.0618    13.747037    1.7483092    170.71882            0 
   23500        23498    99.926615   0.12907069    1330786.9  0.020018251    178.42158     1667.435    5.6789194    1.7569942    170.98567            0 
   24000        23998    99.962651   0.75264971    1330669.9  0.020020011    187.83365    1677.3841    15.542222    1.8389194    170.45251            0 
   24500        24498    99.983739  -0.68832475    1330652.1  0.020020278    177.07187    1666.9365    4.7208757    1.8135663    170.53743            0 
   25000        24998    100.06202  -0.83919797    1330536.3  0.020022021    174.72979    1665.7608    3.1698349    1.7750157    169.78494            0 
   25500        25498    100.03435  -0.26469937    1330542.1  0.020021934    179.60089    1670.2196    7.3950472    1.7909018    170.41494            0 
   26000        25998    100.00482    0.2191152    1330430.9  0.020023607    179.32811    1669.5069    6.6329031    1.7434013    170.95181            0 
   26500        26498    99.980044   0.55854536    1330319.3  0.020025287    177.36133    1667.1709    5.0516985    1.7889314     170.5207            0 
   27000        26998    99.971864     1.360343    1330227.5  0.020026668     179.9957    1669.6834    7.2862089     1.717443    170.99205            0 
   27500        27498     100.0634    1.9799022    1329988.1  0.020030273    180.03486    1671.0866    7.9707814    1.6908697    170.37321            0 
   28000        27998    99.994949    2.5507796    1329772.3  0.020033525    182.81576    1672.8474      11.0577    1.6519712    170.10609            0 
   28500        28498    100.03654    2.0681939    1329780.2  0.020033405    176.22361     1666.875    3.9285649    1.6225938    170.67245            0 
   29000        28998    100.00997     2.489416    1329216.5  0.020041901    180.11603    1670.3715    8.2241104    1.6949259    170.19699            0 
   29500        29498    100.01454    2.1222955    1329026.7  0.020044763    181.44759    1671.7712    8.6526352    1.6868515     171.1081            0 
   30000        29998    100.00498    1.1870754    1328666.6  0.020050196    177.38123    1667.5623    4.5473682    1.7333646    171.10049            0 
   30500        30498    100.01868    1.1328741    1328010.8  0.020060097     181.3389    1671.7242    9.5792459    1.7165094    170.04314            0 
   31000        30998    99.988076   0.36592526    1327394.4  0.020069413    180.20072      1670.13    8.0483512    1.7323922    170.41997            0 
   31500        31498    100.03011  -0.39906758      1326483  0.020083202    177.53381    1668.0894    5.6407619    1.8191325    170.07392            0 
   32000        31998    99.988407  -0.82060561    1325169.1  0.020103114    177.51148    1667.4457    4.7600022      1.81823    170.93325            0 
   32500        32498    99.934922   -1.0624192    1323660.7  0.020126023    175.31592    1664.4531    1.8753533     1.874081    171.56649            0 
   33000        32998    99.967721  0.012569163    1321182.8   0.02016377    181.13331    1670.7593    9.0487716    1.7886274    170.29592            0 
   33500        33498    100.06772   0.24216231    1318293.1  0.020207969    180.48132    1671.5974    8.1997151      1.74769    170.53391            0 
   34000        33998    100.06662    0.1218438    1314841.9  0.020261011    174.44117    1665.5408     2.463208    1.7377296    170.24023            0 
   34500        34498    100.03156    1.0258155    1311081.7   0.02031912    177.19734    1667.7746    5.0955716    1.6936465    170.40813            0 
   35000        34998    99.913126    1.5995637      1306496  0.020390438    178.22093    1667.0334    5.1880885    1.7581981    171.27464            0 
   35500        35498    99.984534    1.7495493    1301715.8  0.020465317    175.30286    1665.1793    3.0325456    1.6886131     170.5817            0 
   36000        35998    100.00644    1.7123174    1296401.7  0.020549207    174.61493    1664.8178    2.0933012    1.6784675    170.84316            0 
   36500        36498    100.01063    2.7337235    1291044.4  0.020634476    183.42887    1673.6943    11.013286    1.6540724    170.76151            0 
   37000        36998    100.05265    2.4207824    1286569.8  0.020706242    182.22262     1673.114    10.617113     1.613021    169.99249            0 
   37500        37498    100.00391    1.6272078    1281933.4  0.020781131      181.115    1671.2802    8.6508646    1.7310578    170.73308            0 
   38000        37998    100.00187   0.63291566    1279306.8  0.020823798    177.74435    1667.8792    5.3673381     1.747035    170.62998            0 
   38500        38498    99.949914  -0.30246114      1277033  0.020860876    175.03199    1664.3926    2.1651923    1.8259586    171.04084            0 
   39000        38998    99.953339  0.031973613    1274209.1  0.020907107    181.39879    1670.8104    8.2831401    1.8175658    171.29809            0 
   39500        39498    100.05032   -0.5165571    1273009.7  0.020926806    177.81488    1668.6716    6.0271651    1.7628089    170.02491            0 
   40000        39998    100.02251  -0.61271049    1271468.4  0.020952173    178.76907    1669.2114    6.5816931    1.7979697    170.38941            0 
   40500        40498    99.997608  -0.14577733      1269394  0.020986413    180.98427    1671.0556    8.6528409    1.7522721    170.57916            0 
   41000        40998    99.980772  0.086337559    1268714.5  0.020997652    179.04108    1668.8615    6.4108507    1.8133484    170.81688            0 
   41500        41498    99.949491   0.40095591    1266433.4  0.021035473    177.40679    1666.7611    4.1178254    1.7866027    171.50236            0 
   42000        41998    100.02695    1.3873284    1262789.8  0.021096168    180.16669    1670.6752    8.0261222    1.7314241    170.40915            0 
   42500        42498    100.00903       1.7418    1258970.2  0.021160172    179.05255     1669.294    6.8761641    1.7030607    170.47333            0 
   43000        42998    100.01094    2.0355659    1252795.7  0.021264462    177.47088    1667.7409    5.1127761    1.6131656    170.74493            0 
   43500        43498     100.0341    1.9234881    1247574.5  0.021353455    174.35645    1664.9715    2.3739054    1.6530181    170.32952            0 
   44000        43998    99.988256     1.797415    1239687.1  0.021489315     174.7359    1664.6679    1.9469341    1.6563547    171.13261            0 
   44500        44498    99.999207    1.4434907    1230084.8  0.021657064    174.70505    1664.8002     2.161727    1.7120494    170.83128            0 
   45000        44998    99.992422   0.76780679    1220137.7  0.021833622    173.02238    1663.0164   0.45221365    1.7376115    170.83255            0 
   45500        45498    99.985711   0.12246069    1208543.6  0.022043082    172.12417    1662.0182  -0.66305748    1.7045368    171.08269            0 
   46000        45998    100.03618  -0.26849266    1194949.1  0.022293858    173.10723    1663.7533    1.2303349     1.754526    170.12237            0 
   46500        46498    100.01823   -1.1883745    1180749.3  0.022561966    170.57537    1660.9539   -1.7392815    1.7445082    170.57015            0 
   47000        46998    100.02728    -1.994165    1164934.5   0.02286826    166.07851     1656.592   -6.6688436    1.8051689    170.94219            0 
   47500        47498    99.839122  -0.93534195    1147401.8  0.023217696    164.06129     1651.771   -9.6356383    1.8596756    171.83725            0 
   48000        47998    100.00469   -1.8840836    1129614.3  0.023583293    152.60131    1642.7782   -20.779983    1.7735385    171.60776            0 
   48500        48498    100.12327   -1.1299855    1113749.1  0.023919234    144.26959    1636.2134   -28.541545    1.7536032    171.05754            0 
   49000        48998    100.03493  -0.19225127    1102722.1  0.024158422    147.68329    1638.3108   -25.284795    1.6590282    171.30906            0 
   49500        49498    100.00253   0.83570005    1092872.9  0.024376144    148.30231     1638.447   -25.220275    1.6460218    171.87656            0 
   50000        49998     100.0462    2.3391213    1084080.8  0.024573837    143.88198    1634.6773   -29.660824    1.6092176    171.93358            0 
   50500        50498    99.889063    3.4624939    1082719.4  0.024604737    140.97805    1629.4319   -33.620208    1.6105312    172.98773            0 
   51000        50998    100.23081    2.3595022    1086677.9  0.024515108    128.60046    1622.1467   -45.336144    1.5296335    172.40697            0 
   51500        51498    99.996647    4.2991026    1099017.9  0.024239846    132.07749    1622.1345   -42.076305    1.4684527    172.68535            0 
   52000        51998    100.17344    3.5043243    1119522.8  0.023795876    124.40402    1617.0955   -49.935738    1.4813273    172.85843            0 
   52500        52498    100.02053    4.5386992    1146684.3  0.023232223    132.17863    1622.5915   -42.171576    1.4743361    172.87587            0 
   53000        52998     100.1728    4.4525535    1175143.5  0.022669593    125.08746    1617.7693   -49.689942    1.5113316    173.26607            0 
   53500        53498    100.04181    4.4032082    1210568.5  0.022006212    126.43284    1617.1628   -48.866269    1.5212277    173.77788            0 
   54000        53998    100.28864    3.2048957    1249906.4  0.021313616    119.81977    1614.2277   -55.150233     1.505466    173.46453            0 
   54500        54498    99.896433    4.9459322    1294336.9  0.020581987     125.1197    1613.6834   -50.521294    1.5244266    174.11656            0 
   55000        54998    99.823826    5.6706704    1341265.8  0.019861854    127.16964    1614.6514   -48.757108    1.5198228    174.40692            0 
   55500        55498    99.985926      6.57387    1392562.5   0.01913022    121.28909    1611.1863   -54.874433    1.5717836    174.59174            0 
   56000        55998    100.04275    6.1219086    1451755.3  0.018350217    117.07404     1607.818    -59.14124    1.4540189    174.76126            0 
   56500        56498    99.816752    7.6572266    1517469.4   0.01755556    118.23417    1605.6105    -58.52432    1.4191263    175.33936            0 
   57000        56998    99.705523     9.227087    1584445.6  0.016813469    120.38662    1606.1055   -56.498577    1.5005198    175.38468            0 
   57500        57498    100.05652    6.7140549    1658214.7  0.016065487    115.21924    1606.1685    -62.11138     1.384094    175.94652            0 
   58000        57998    99.991428    7.6163245    1733761.7  0.015365448    116.02601    1606.0052   -61.294996    1.4122233    175.90878            0 
   58500        58498     99.96517    7.6354934    1819162.3  0.014644117    122.33213    1611.9201   -55.462182    1.4056604    176.38865            0 
   59000        58998    99.912138    8.1051845    1907474.1  0.013966127    121.89843    1610.6961   -56.272091     1.404506    176.76602            0 
   59500        59498    99.950416    7.0060861      2005638  0.013282569    121.27655    1610.6446    -57.36419     1.354428    177.28631            0 
   60000        59998    100.10619    6.7140426    2106391.3  0.012647235    124.82319    1616.5125   -53.388412    1.4126596    176.79894            0 
   60500        60498     99.90783    6.9063409    2215654.1  0.012023549    125.89783    1614.6314   -53.284722    1.3949093    177.78765            0 
   61000        60998    99.857401    6.9207805    2329004.6  0.011438374    129.27902    1617.2611   -50.465894    1.4108667    178.33404            0 
   61500        61498    99.799765    6.3288916    2450762.1  0.010870099     132.8061    1619.9293   -46.796217    1.4621382    178.14018            0 
   62000        61998    99.686828     6.882692    2575239.2   0.01034468    136.22002    1621.6604      -44.177     1.505781    178.89124            0 
   62500        62498    99.686605    5.9337709    2710988.9  0.009826682    142.53153    1627.9685   -37.853366    1.4782343    178.90666            0 
   63000        62998    100.02635    4.9088883    2851646.7 0.0093419798    140.72209    1631.2217   -39.553067    1.5036104    178.77154            0 
   63500        63498    99.797576     5.404198    3000944.2 0.0088772146    139.26716    1626.3578   -41.591758    1.5186086    179.34031            0 
   64000        63998    99.802032      4.66489    3158969.5 0.0084331381    144.65258    1631.8096   -36.241807    1.5554705    179.33892            0 
   64500        64498    99.910057    4.4371854    3320597.5 0.0080226604    146.12483    1634.8915   -34.867777    1.5041377    179.48847            0 
   65000        64998     99.79836    4.6157563    3490595.6 0.0076319428    147.95956    1635.0619   -33.138799    1.5385531     179.5598            0 
   65500        65498    99.863482    4.2593747    3670957.4 0.0072569695    152.05896    1640.1316   -29.177107    1.5679513    179.66812            0 
   66000        65998    99.870603    4.3019299    3854713.8 0.0069110257     149.2576    1637.4364   -32.084753     1.621346      179.721            0 
   66500        66498    99.823156    3.8064261    4048588.1 0.0065800781     153.7532     1641.225   -28.044431    1.5634221    180.23421            0 
   67000        66998    99.950968    3.4415472    4247157.3 0.0062724369    151.78068     1641.157   -30.000947    1.5639505    180.21767            0 
   67500        67498     99.76972    3.5503798    4456672.5 0.0059775597    155.77547     1642.451   -26.593884    1.5974625    180.77189            0 
   68000        67998    99.816167     3.548087      4669838 0.0057047003    156.30575    1643.6734   -26.184215    1.5645642     180.9254            0 
   68500        68498    99.687992    3.6432266    4892831.1 0.0054447058    158.50169    1643.9594   -24.128201    1.6119872     181.0179            0 
   69000        68998    99.952927    3.0461782    5120783.4  0.005202334    160.25004    1649.6555   -22.004594    1.6057621    180.64887            0 
   69500        69498    99.896557    2.9353337    5355444.7 0.0049743817     160.1802    1648.7457   -22.502544    1.5968525     181.0859            0 
   70000        69998    99.964901    2.5419996    5596568.2 0.0047600645    159.18096    1648.7649   -23.215077    1.6551511    180.74088            0 
   70500        70498    99.925016    2.5195604      5844187 0.0045583801    159.64634    1648.6359   -22.801895    1.6445832    180.80365            0 
   71000        70998    99.880186    2.4868246    6095196.5 0.0043706591    162.84264    1651.1642   -20.341144    1.6752925     181.5085            0 
   71500        71498    99.918167    2.4670724    6351672.2 0.0041941752    160.50963    1649.3972   -22.171217    1.7003274    180.98052            0 
   72000        71998    99.844739    2.3636537    6614852.6 0.0040273045    165.93982    1653.7332    -17.61619    1.7575088     181.7985            0 
   72500        72498    99.945933    2.1274817      6879907 0.0038721491    165.33632    1654.6376   -17.952717    1.7321808    181.55685            0 
   73000        72998    99.902983    2.0756667    7151154.2 0.0037252764     167.8868    1656.5481   -15.250357    1.7949401    181.34222            0 
   73500        73498    99.877827     1.989036    7423117.9  0.003588792    168.11602    1656.4024    -15.66112    1.7678382     182.0093            0 
   74000        73998    99.897961    1.8688574      7699314 0.0034600519    167.22256     1655.809   -16.120753    1.8364733    181.50684            0 
   74500        74498    99.755838    1.8451082    7979045.5 0.0033387485    172.00439    1658.4731   -12.476395    1.9100793    182.57071            0 
   75000        74998    99.926213    1.4877802    8254331.2 0.0032273997    172.80433    1661.8118   -11.664002    1.9035398    182.56479            0 
   75500        75498    99.950421     1.455076    8527410.3 0.0031240465    171.14536    1660.5135   -12.527067    1.9199067    181.75252            0 
   76000        75998    99.944845    1.3507586    8804067.7  0.003025877    171.25014    1660.5352    -13.08875    1.9306238    182.40827            0 
   76500        76498    100.02897    1.3265097    9069953.9 0.0029371732    170.78828    1661.3269   -13.714065    1.9178605    182.58449            0 
   77000        76998    99.968272    1.4002187    9341876.4 0.0028516783    169.10589    1658.7401   -15.722131    1.9143206     182.9137            0 
   77500        77498    100.02403    1.3646961    9608281.3  0.002772611    172.22466    1662.6897   -12.218703    1.9587594    182.48461            0 
   78000        77998    99.895321    1.4463832    9868870.4 0.0026993997    174.97479    1663.5219   -9.8896154    1.9476716    182.91673            0 
   78500        78498    99.973355    1.3646736     10119751 0.0026324783      174.344    1664.0539   -10.304315    1.9013918    182.74692            0 
   79000        78998    99.938109    1.3762174     10364191 0.0025703912      175.094    1664.2787   -9.6575625    1.8832355    182.86832            0 
   79500        79498     100.0066    1.3461033     10610355 0.0025107574    173.94999    1664.1552    -10.49329    1.9047705    182.53851            0 
   80000        79998    99.977619    1.2798929     10858231 0.0024534407    172.96263    1662.7361   -12.571851     1.956324    183.57815            0 
   80500        80498    99.992553    1.2751783     11088310 0.0024025325    171.73585    1661.7318   -13.551987    1.9721537    183.31569            0 
   81000        80998    100.01191    1.2530456     11317689 0.0023538396    173.17571    1663.4602    -11.98829    1.9415738    183.22243            0 
   81500        81498    99.954445    1.2096635     11535456 0.0023094037    172.48422    1661.9123   -12.729887    2.0110224    183.20309            0 
   82000        81998    99.932003    1.0879341     11752379 0.0022667773    174.79726     1663.891   -11.155756    2.0617711    183.89124            0 
   82500        82498     100.0244     1.010653     11940701  0.002231027    174.46013    1664.9307   -11.037528    2.0485073    183.44915            0 
   83000        82998    99.960286   0.95036927     12135724 0.0021951739    174.08269    1663.5979    -11.17086    2.0949485     183.1586            0 
   83500        83498    99.967584   0.88652794     12344946 0.0021579703    176.79085    1666.4148   -8.5526958    2.1269785    183.21656            0 
   84000        83998    100.00065   0.94393854     12528750 0.0021263115    177.14487    1667.2615   -8.5225767    2.0291369     183.6383            0 
   84500        84498    99.966597    1.0300668     12713214 0.0020954596    178.52736    1668.1366   -7.5549202    2.0328764    184.04941            0 
   85000        84998    99.997402    1.1470285     12891443  0.002066489    178.49718    1668.5654   -6.9497551    2.0361553    183.41078            0 
   85500        85498    99.991484    1.1800506     13050997 0.0020412253    178.47344    1668.4535    -7.421384    2.0292905    183.86553            0 
   86000        85998     100.0315    1.1814796     13192618  0.002019313    177.50387    1668.0802   -8.0840128    2.0220166    183.56586            0 
   86500        86498    99.992338    1.1478776     13328679 0.0019986997     175.9469    1665.9397   -9.7921084    2.0147303    183.72428            0 
   87000        86998      99.9802    1.0151778     13454608 0.0019799928    178.44312     1668.255   -7.3502632    1.9991134    183.79427            0 
   87500        87498    99.987093   0.93524948     13553739 0.0019655112    178.82247    1668.7371   -7.2317565    2.0445392    184.00968            0 
   88000        87998    99.980575   0.98694077     13631340 0.0019543218    175.55319    1665.3707   -10.451102    2.1104326    183.89386            0 
   88500        88498    100.00359   0.94409436     13715406 0.0019423433    175.67013    1665.8305   -10.567752    2.0764049    184.16148            0 
   89000        88998    99.917309   0.96484932     13799506 0.0019305057    176.20725     1665.082    -10.02199    2.1306224    184.09862            0 
   89500        89498    100.01664   0.89780671     13877392  0.001919671    177.22709     1667.582   -9.0772885     2.167693    184.13669            0 
   90000        89998    100.06011   0.90495388     13933327 0.0019119644    176.27871    1667.2814   -9.4345918    2.1616787    183.55162            0 
   90500        90498    99.999247   0.91723104     14002896 0.0019024654    177.82326     1667.919   -8.7934065    2.0945228    184.52215            0 
   91000        90998    99.974011     0.957281     14075866  0.001892603     178.9364    1668.6561   -7.6717835    2.1027917    184.50539            0 
   91500        91498    99.992805   0.99272234     14160360 0.0018813099    179.82794    1669.8277   -6.5574186    2.0595498    184.32581            0 
   92000        91998     99.96584    1.0839728     14231414  0.001871917    181.45501    1671.0529   -4.7962571    2.0410238    184.21024            0 
   92500        92498    100.05507    1.1134849     14280354 0.0018655018     178.4287    1669.3563   -7.9127583    2.0298121    184.31165            0 
   93000        92998     99.86987    1.1877504     14342038 0.0018574784     178.7969    1666.9648   -7.8752554    2.1035215    184.56863            0 
   93500        93498    100.00014    1.0640649     14422470 0.0018471195    176.92001     1667.029   -9.4128383    2.0250863    184.30776            0 
   94000        93998    100.02399   0.99912635     14488737 0.0018386714    176.72281    1667.1872   -9.9168897    2.0148538    184.62485            0 
   94500        94498    99.976164    0.9772734     14558536 0.0018298561    178.72298    1668.4747   -8.2428857    2.0881479    184.87772            0 
   95000        94998    99.987443       1.0221     14637456 0.0018199902    179.80126    1669.7211    -7.126938    2.0718323    184.85637            0 
   95500        95498    99.976256   0.97229423     14745986 0.0018065951    181.24692    1671.0001   -5.6696271    2.0628749    184.85367            0 
   96000        95998    99.962833    1.0101866     14839287 0.0017952363    180.31058    1669.8637   -6.2976176    2.0155154    184.59268            0 
   96500        96498    100.04121    1.0139203     14919206 0.0017856195    178.34875    1669.0697   -7.6667572    2.0560166    183.95949            0 
   97000        96998    99.888092    1.0474227     15019062 0.0017737476    179.06218    1667.5016   -7.2760965    2.0335609    184.30472            0 
   97500        97498    100.02875    1.0361882     15109435 0.0017631384    178.64066    1669.1761   -8.3144386    1.9880825    184.96702            0 
   98000        97998     99.98569    1.0606823     15196476 0.0017530397    179.19322    1669.0869   -8.3659659    2.0545621    185.50462            0 
   98500        98498    99.865678    1.1000967     15259045 0.0017458514    179.96279    1668.0682   -7.8071605    2.0711393    185.69881            0 
   99000        98998    99.908462    1.0943363     15320683 0.0017388275    181.03018    1669.7731   -5.6608249    1.9942592    184.69674            0 
   99500        99498    100.03526    1.0197794     15370052 0.0017332424     180.7811    1671.4134   -5.6822971    1.9953072    184.46809            0 
  100000        99998    99.940835    1.0735238     15398006 0.0017300958    180.76867     1669.994   -5.8573684    1.9726174    184.65342            0 
  100500       100498    99.952377    1.0950845     15450833 0.0017241806    181.13759    1670.5349   -5.7856781    1.9223541    185.00092            0 
  101000       100998    99.943644    1.1404366     15497154  0.001719027    179.49254    1668.7597   -7.8986031    1.9648114    185.42634            0 
  101500       101498     100.0165    1.1956986     15536814 0.0017146389    179.87648    1670.2292   -7.5283914    1.9489193    185.45595            0 
  102000       101998     99.96981    1.1810553     15584719 0.0017093684    178.48344    1668.1405   -8.4044811    1.9572859    184.93064            0 
  102500       102498    100.02979    1.1019963     15625176 0.0017049424    180.63616     1671.187   -6.2749931    2.0014012    184.90976            0 
  103000       102998    100.05438   0.98194531     15650083  0.001702229    180.52176     1671.439   -6.5322853    2.0826843    184.97136            0 
  103500       103498    100.04424   0.81348108     15670591 0.0017000013    178.92589     1669.692   -8.2558088    2.1172039    185.06449            0 
  104000       103998    100.05218   0.79432447     15701548 0.0016966497    177.10656     1667.991   -9.7483085    2.1647454    184.69012            0 
  104500       104498    99.994589   0.86629846     15758626 0.0016905044    179.57288    1669.5992   -7.7420524    2.1155368     185.1994            0 
  105000       104998    100.03789   0.83615304     15830756 0.0016828019    179.31213    1669.9837   -7.9541424    2.1545651    185.11171            0 
  105500       105498    99.876373   0.97575102     15921802 0.0016731791    180.85674    1669.1215   -6.9993923    2.1780457    185.67809            0 
  106000       105998    100.03318   0.98084068     16012249 0.0016637279    181.08253    1671.6838   -5.9260457    2.0542719     184.9543            0 
  106500       106498    100.00365    1.0760236     16087601 0.0016559353    179.63765     1669.799   -7.5932544    2.0375446    185.19336            0 
  107000       106998    100.04175    1.0953139     16143407 0.0016502109    178.47045    1669.1995   -9.1603951    2.0225417     185.6083            0 
  107500       107498    99.986969    1.1522815     16180824 0.0016463949    178.24014    1668.1529   -9.4630142    1.9822686    185.72089            0 
  108000       107998     99.93273    1.1850066     16203998 0.0016440403    181.93775    1671.0423   -6.2673468     2.072118    186.13298            0 
  108500       108498    100.04967    1.0501439     16234034 0.0016409986    179.56231    1670.4094   -7.7232946    2.0407621    185.24484            0 
  109000       108998    100.00062   0.99320611     16294927 0.0016348662    180.90389      1671.02   -6.9002619    2.1111114    185.69304            0 
  109500       109498    99.931249   0.99507909     16385633 0.0016258161    181.84821    1670.9307   -6.1940225    2.0329342     186.0093            0 
  110000       109998     99.97459   0.95132967     16501977 0.0016143536    181.97171       1671.7   -6.2673964    2.1295609    186.10954            0 
  110500       110498    99.943681   0.90513099     16623381 0.0016025636    181.94123     1671.209    -6.126833     2.230569     185.8375            0 
  111000       110998    99.848832   0.93498718     16738814 0.0015915122    183.47757     1671.332   -4.7869042    2.1343614    186.13012            0 
  111500       111498    99.962169   0.91061204     16833661  0.001582545    181.64878     1671.192   -6.8747803    2.1164188    186.40714            0 
  112000       111998    99.958097   0.94282984     16917694 0.0015746842    180.86048     1670.343   -7.4238476    2.2075997    186.07672            0 
  112500       112498    99.956247   0.96959859     16979839  0.001568921    181.55933    1671.0143   -6.6977283    2.1467783    186.11028            0 
  113000       112998    99.948554   0.98979683     17007484 0.0015663708     181.8163    1671.1566   -6.1974543    2.1371747    185.87658            0 
  113500       113498    100.05946   0.92412333     17025782 0.0015646874    181.76635    1672.7593   -5.9997102    2.0964697    185.66959            0 
  114000       113998    99.926893   0.94862442     17038635 0.0015635071    182.32791    1671.3455   -6.3326774    2.1282761    186.53231            0 
  114500       114498    99.902172   0.96443834     17068976 0.0015607278    183.95071    1672.5999   -4.9257874    2.2116915    186.66481            0 
  115000       114998    100.03892    0.9922516     17105189 0.0015574237    180.62013     1671.307   -7.4415265    2.0425143    186.01914            0 
  115500       115498    99.994673   0.97977742     17170255 0.0015515218    181.62699    1671.6546   -5.9882787    1.9529304    185.66234            0 
  116000       115998    100.06487    1.0441284     17196707 0.0015491353    178.40389    1669.4775   -9.2185917    2.0247311    185.59775            0 
  116500       116498    100.00122    1.1236012     17238546 0.0015453755    178.04674    1668.1718   -10.380517    1.9934494    186.43381            0 
  117000       116998     100.0112    1.2057077     17314074 0.0015386341    177.01791    1667.2917   -11.085175    1.9504236    186.15266            0 
  117500       117498    100.01513    1.1824609     17378313 0.0015329466    177.56906    1667.9015   -10.724725    1.9437365    186.35005            0 
  118000       117998    99.960652    1.1674852     17407180 0.0015304045    179.38236     1668.903   -9.1654461    2.0596359    186.48817            0 
  118500       118498    100.08084    1.0797805     17446206 0.0015269811    178.26273    1669.5742   -9.8355953    2.0342578    186.06406            0 
  119000       118998    99.887646    1.0403457     17486968 0.0015234217    180.94954    1669.3823   -7.6733765    1.9878734    186.63504            0 
  119500       119498    99.946146   0.92853497     17535306 0.0015192222    179.35749    1668.6619     -9.33563    2.0613385    186.63178            0 
  120000       119998    99.945145   0.82374527     17596866 0.0015139074    180.02905    1669.3186   -8.9200344    2.1771003    186.77198            0 
  120500       120498    99.939013   0.78576754     17683029 0.0015065307     181.9377    1671.1359   -7.3408674    2.1814125    187.09716            0 
  121000       120998    100.05494   0.77556781     17771409 0.0014990385    179.44186    1670.3674   -9.3007206    2.1115146    186.63107            0 
  121500       121498    99.914481   0.92220553     17865424   0.00149115    180.22024    1669.0529     -8.36114    2.0501729    186.53121            0 
  122000       121998    99.989632   0.99833491     17945366 0.0014845072    181.14166    1671.0941   -8.0052963    2.0246532     187.1223            0 
  122500       122498    99.837611    1.1586735     17994195 0.0014804789    182.34291    1670.0301   -7.1501689     2.177773    187.31531            0 
  123000       122998    100.01013    1.1439546     18041564 0.0014765918    179.84957    1670.1075   -9.1708258    1.9879512    187.03244            0 
  123500       123498    99.876315    1.2531718     18087502 0.0014728416    179.67594    1667.9398   -9.4573741    1.9029383    187.23037            0 
  124000       123998    100.05861    1.1734565     18129700 0.0014694135    178.99119    1669.9715   -9.0798285    1.8358905    186.23513            0 
  124500       124498    100.04042    1.1708261     18137155 0.0014688096      179.569    1670.2783   -9.0084457     1.905553    186.67189            0 
  125000       124998    99.985414    1.1322161     18163369 0.0014666897    181.59414    1671.4837   -7.7032607    2.0276035     187.2698            0 
  125500       125498    100.00727    1.0053409     18183829 0.0014650394    181.66398    1671.8793   -7.8073282    2.0465202    187.42479            0 
  126000       125998    100.01569   0.90402111     18226179 0.0014616353    181.78332    1672.1241   -7.3872472    2.0075186    187.16305            0 
  126500       126498    100.06265   0.80302353     18256813 0.0014591827    180.62627    1671.6667   -8.1766098    2.1348806      186.668            0 
  127000       126998    100.05531   0.84704807     18293015  0.001456295    180.74933    1671.6805   -8.3581558    2.1194701    186.98802            0 
  127500       127498     99.94711   0.90010706     18358696 0.0014510848    182.60651    1671.9253   -7.6317185    2.1728143    188.06541            0 
  128000       127998    99.929617   0.90526579     18448399 0.0014440291    183.87998    1672.9381   -5.7652795    2.2206088    187.42465            0 
  128500       128498    100.05544   0.90202926     18502983 0.0014397692    182.33421    1673.2672   -6.3358716     2.122234    186.54785            0 
  129000       128998     100.0726   0.95775359     18531325 0.0014375673    181.97405    1673.1628   -6.6449382    2.0742259    186.54476            0 
  129500       129498    100.03993     1.084674     18548984 0.0014361987     183.4164    1674.1183   -6.4700386    2.0621187    187.82432            0 
  130000       129998    99.987665    1.1203536     18588104 0.0014331761     182.7786    1672.7017   -6.8594667    2.0656701    187.57239            0 
  130500       130498    100.03659    1.1660158     18633148 0.0014297115     181.7551    1672.4072   -7.1020641    2.0851153    186.77204            0 
  131000       130998    100.00488    1.1211277     18676073 0.0014264254    183.75546    1673.9351   -5.2160191    1.9723222    186.99915            0 
  131500       131498    99.951497    1.0904188     18675319 0.0014264831     181.5198     1670.904   -8.1024574    2.0868007    187.53546            0 
  132000       131998    100.07036   0.98196593     18690173 0.0014253493    180.29039    1671.4458   -8.7137333    2.0817299    186.92239            0 
  132500       132498    99.901884    0.9701042     18695145 0.0014249703     181.2445    1669.8894   -8.3765748    2.0968398    187.52423            0 
  133000       132998    99.914734   0.95524812     18724882 0.0014227073    183.83987    1672.6763   -5.8412271     2.197256    187.48384            0 
  133500       133498    100.10271   0.94545381     18734453 0.0014219805    179.50723    1671.1447   -9.5600049    2.0338102    187.03342            0 
  134000       133998    99.994562   0.98385154     18780279 0.0014185107    182.37008     1672.396   -7.4140034    2.0583858     187.7257            0 
  134500       134498    100.00318    1.0109441     18832603 0.0014145695    182.75204    1672.9064   -6.8322256    2.2445575    187.33971            0 
  135000       134998    100.00532   0.97351754     18913059  0.001408552    182.73531    1672.9216   -6.8162906    2.1139682    187.43763            0 
  135500       135498    99.966748   0.99054029     18968778 0.0014044145    182.90661    1672.5181   -6.9678106    2.1295205     187.7449            0 
  136000       135998    99.863273   0.98478293     19012530 0.0014011826    184.25456    1672.3241   -6.1939911    2.1332619    188.31529            0 
  136500       136498    99.969561   0.91986641     19058447 0.0013978068    184.44272    1674.0961   -5.9586997    2.1074712    188.29395            0 
  137000       136998    100.06411   0.87836198     19089325 0.0013955458    182.43078     1673.493   -7.0246708     2.098986    187.35647            0 
  137500       137498    99.977359   0.91799454     19132302 0.0013924109    183.40154    1673.1711   -6.1422526    2.1986389    187.34515            0 
  138000       137998    99.993469   0.99281412     19189772 0.0013882409    185.06877    1675.0784   -5.0632126     2.176906    187.95508            0 
  138500       138498    99.996637    1.0095711     19241381 0.0013845173    184.68055    1674.7374   -5.6434718    2.0617108    188.26231            0 
  139000       138998    99.909671    1.1018928     19293108 0.0013808053    183.66787    1672.4288   -6.5418748    2.0771615    188.13258            0 
  139500       139498    100.01175    1.0463556     19338995  0.001377529    184.42597     1674.708   -5.9080627    2.0286769    188.30535            0 
  140000       139998    99.992745    1.0725986     19345651  0.001377055    183.26126    1673.2601    -6.865165    1.9973642    188.12906            0 
  140500       140498    100.05299    1.0402069     19361844 0.0013759033    183.61977    1674.5164   -5.9323757    1.9494831    187.60266            0 
  141000       140998    99.993281    1.0645635     19367454 0.0013755048    185.30057    1675.3074   -4.8331072    2.0015614    188.13212            0 
  141500       141498    99.941541    1.1161309     19370003 0.0013753238      185.163    1674.3988   -5.4311359    2.0584132    188.53572            0 
  142000       141998    99.995406    1.0850429     19406102 0.0013727654    185.53633    1675.5748   -4.6073017     2.105569    188.03807            0 
  142500       142498    100.05853    1.0461857     19440853 0.0013703116    183.97113    1674.9502    -6.694858    2.0439241    188.62207            0 
  143000       142998    100.02762    1.0193795     19500382 0.0013661284    184.61151      1675.13    -5.650987    2.0644176    188.19808            0 
  143500       143498    100.09148   0.92392434     19554961 0.0013623155    183.32386     1674.794   -6.9690817    2.0945193    188.19842            0 
  144000       143998    99.994721   0.88714571     19602205 0.0013590321    183.47835    1673.5066   -7.1023532    2.2146829    188.36602            0 
  144500       144498    100.02034   0.87822342     19633171 0.0013568886    182.06608    1672.4761   -8.6604281    2.1967155    188.52979            0 
  145000       144998    100.01702   0.83209382     19699488 0.0013523207    183.70911    1674.0697   -6.7136345    2.2034604    188.21928            0 
  145500       145498    99.967455   0.92083962     19747199 0.0013490534     186.0888    1675.7108   -5.3369132    2.1639737    189.26174            0 
  146000       145998     100.0207   0.97295873     19791693 0.0013460206    185.62053    1676.0359   -4.7169107    2.0729466     188.2645            0 
  146500       146498    99.908456    1.0579801     19816015 0.0013443685    185.52323    1674.2661    -5.331222    2.0462524     188.8082            0 
  147000       146998    100.05808    1.1081894     19833541 0.0013431805    185.80219    1676.7747   -4.9488527    2.0190899    188.73195            0 
  147500       147498    100.08274     1.088156     19855255 0.0013417116    184.85927    1676.1991   -5.0456839    2.0892592     187.8157            0 
  148000       147998    99.971572    1.1845474     19874838 0.0013403896    185.09469     1674.778   -5.9657299    1.9046335    189.15578            0 
  148500       148498    99.957053    1.2391905     19911837 0.0013378989     183.9865    1673.4535   -7.1029864    1.9738064    189.11568            0 
  149000       148998    100.00555    1.1536065     20000023 0.0013319998    184.78409    1674.9738   -5.6897934    2.0079532    188.46593            0 
  149500       149498    100.06153     1.128553     20075987 0.0013269597    184.58539    1675.6092   -6.0306668    2.0405839    188.57547            0 
  150000       149998    99.971867    1.1279408     20134798 0.0013230839     185.5889    1675.2766   -4.7468686    1.9409914    188.39478            0 
  150500       150498    100.01407     1.051753     20197358 0.0013189857    185.96914    1676.2857   -5.2325963    1.9591738    189.24256            0 
  151000       150998    99.995782   0.97030966     20234996 0.0013165323    184.09037    1674.1345   -7.0767889    2.0569528    189.11021            0 
  151500       151498    99.942783   0.94826342     20274386 0.0013139745    185.30618    1674.5605   -6.2951271    2.1976228    189.40368            0 
  152000       151998    100.00761   0.84650285     20351924 0.0013089684    184.89462    1675.1149   -6.1344949    2.1712102     188.8579            0 
  152500       152498      100.024   0.85400987     20402427 0.0013057283    186.04088    1676.5054   -4.7337661    2.2204929    188.55415            0 
  153000       152998    100.01957   0.84736715     20437766 0.0013034706    185.96926    1676.3679   -5.3470087    2.2384455    189.07783            0 
  153500       153498    100.01828   0.90158586     20466102 0.0013016658    185.57026    1675.9496   -5.8268583    2.1948215     189.2023            0 
  154000       153998    99.997664   0.95256716     20498325 0.0012996197    185.91389     1675.986   -5.6621708    2.1850628      189.391            0 
  154500       154498    99.971257    1.0051537     20529099 0.0012976714    184.45591    1674.1345    -7.463432    2.1565991    189.76274            0 
  155000       154998     99.97797    1.0209942     20564213 0.0012954557      185.422    1675.2007   -6.0111337    2.1300787    189.30306            0 
  155500       155498     100.0469   0.99175767     20609340  0.001292619    185.28242    1676.0882   -5.8934083    2.1212992    189.05453            0 
  156000       155998    100.00696   0.95064905     20676437 0.0012884244    186.91596    1677.1265   -4.3993441    2.1666612    189.14864            0 
  156500       156498    99.982058    1.0146208     20702265  0.001286817    185.54522    1675.3848   -5.4567163    2.1459391    188.85599            0 
  157000       156998    100.02102    1.0070297     20762105 0.0012831081    185.90198    1676.3222   -5.6316509    2.0531029    189.48052            0 
  157500       157498    100.01282    1.0381409     20798666 0.0012808526    184.21444    1674.5124   -7.5871052     2.098282    189.70327            0 
  158000       157998    99.910792    1.1098665     20838964 0.0012783757    185.23773    1674.0154   -6.5076856    2.0757165    189.66969            0 
  158500       158498    100.00578    1.1126071     20875669  0.001276128    184.16024    1674.3533   -6.8898396    1.9087507    189.14133            0 
  159000       158998    100.04209    1.0777463     20882588 0.0012757052    184.73763    1675.4717   -6.5079514    2.1942848     189.0513            0 
  159500       159498    100.01024    1.0565716     20872252 0.0012763369    184.66898    1674.9285   -6.8588278     2.106693    189.42112            0 
  160000       159998     100.0422   0.96911026     20858634 0.0012771702    183.20455    1673.9403   -8.2518872    2.1015249    189.35492            0 
  160500       160498    100.07876   0.89596225     20853940 0.0012774577    183.87287    1675.1535   -6.9454461     2.061565    188.75675            0 
  161000       160998    100.02192   0.88617767     20859193  0.001277136    184.39439    1674.8279   -6.5928893    2.1281359    188.85914            0 
  161500       161498    99.868925   0.93273601     20869097 0.0012765299    188.07303    1676.2268   -4.1986732    2.1992389    190.07246            0 
  162000       161998    99.983089   0.95412318     20913086 0.0012738448    187.03168    1676.8866   -4.3018634    2.1496486     189.1839            0 
  162500       162498    99.909742    1.0420023     20932207 0.0012726812    187.13697     1675.899   -5.0261758    2.2305044    189.93264            0 
  163000       162998    99.901981    1.1067606     20970714 0.0012703443    187.60371    1676.2501   -4.9001371    2.0176512     190.4862            0 
  163500       163498    100.03388     1.136265     21013171 0.0012677775    186.56032    1677.1721    -4.705684    2.0074132     189.2586            0 
  164000       163998    100.05829    1.1287306     21036972 0.0012663432    184.92777    1675.9033   -6.1237888    2.0592366    188.99233            0 
  164500       164498    99.960475     1.131253     21055596  0.001265223    186.02831    1675.5463   -5.9681185    2.0295699    189.96686            0 
  165000       164998    100.02507    1.0614508     21063070 0.0012647741    185.23945      1675.72   -5.9466827    2.0682452    189.11789            0 
  165500       165498    99.907525    1.0518209     21054395 0.0012652952    187.67697    1676.4059   -4.6572233    2.0503119    190.28388            0 
  166000       165998    100.05364   0.98013781     21049673 0.0012655791    185.93863    1676.8449   -5.7056217    2.0392913    189.60496            0 
  166500       166498    99.968316   0.93641502     21076948 0.0012639413    186.85766    1676.4925   -4.6559237    2.2882703    189.22532            0 
  167000       166998    99.939361   0.88915331     21151208 0.0012595037    186.51883    1675.7222   -5.3658686    2.2056514    189.67904            0 
  167500       167498    100.04596    0.8295712     21213855 0.0012557843    185.76674    1676.5585   -5.7798302    2.2417743     189.3048            0 
  168000       167998    99.906918   0.88261504     21254914 0.0012533585    186.61535    1675.3353   -5.4280742    2.2641295     189.7793            0 
  168500       168498     100.0117   0.86616981     21314136 0.0012498759    186.51306    1676.7944   -5.0444496    2.2368551    189.32065            0 
  169000       168998    100.03282   0.91709453     21341550 0.0012482704    186.35749    1676.9535    -4.977436    2.1984585    189.13646            0 
  169500       169498    99.992635   0.96614834     21356906 0.0012473729    187.04177     1677.039   -4.8520944    2.1924557     189.7014            0 
  170000       169998    99.904613    1.0157789     21357226 0.0012473542    187.01582    1675.7014   -5.5836111    2.1782147    190.42122            0 
  170500       170498      100.012   0.98761035     21355658 0.0012474458    185.62474    1675.9105   -6.0457556    2.1392606    189.53124            0 
  171000       170998    99.941482   0.97648041     21363016 0.0012470161    185.61059    1674.8456   -5.6885478    2.1141907    189.18494            0 
  171500       171498    99.976777   0.99263521     21372889 0.0012464401    187.74564    1677.5065   -4.5574799    2.1003695    190.20276            0 
  172000       171998     100.0112    1.0798803     21351950 0.0012476624    187.26783    1677.5416   -5.0426371    2.1025464    190.20792            0 
  172500       172498    99.986276    1.1448927     21338327  0.001248459    186.98321    1676.8857   -5.0366726    2.1194895     189.9004            0 
  173000       172998    99.989873    1.1278764     21335746   0.00124861    188.09489    1678.0509   -4.0357915    2.1522644    189.97842            0 
  173500       173498    99.996864    1.0680548     21331795 0.0012488412    187.06811    1677.1283   -5.0801463    2.1839926    189.96426            0 
  174000       173998     99.95673   0.95219326     21359237 0.0012472368    188.00555    1677.4677    -4.379664    2.2054874    190.17973            0 
  174500       174498    100.10125   0.80808675     21383282 0.0012458343     184.8085    1676.4241   -6.9716145    2.2674785    189.51263            0 
  175000       174998    99.988297   0.74722024     21430472 0.0012430909     186.8032    1676.7357   -5.3289466    2.3766767    189.75547            0 
  175500       175498    100.02952   0.73367752     21482979 0.0012400527    186.05107    1676.5979   -5.6090909    2.2608384    189.39932            0 
  176000       175998    99.967956   0.81497763     21554157 0.0012359577    186.46042    1676.0899   -5.9886143    2.2441771    190.20486            0 
  176500       176498    99.884781   0.89143622     21617365 0.0012323438    186.44143    1674.8315   -6.3839078    2.2494435    190.57589            0 
  177000       176998    100.03595   0.93948076     21650342 0.0012304668    186.52666    1677.1693   -5.6815032    2.2313833    189.97678            0 
  177500       177498    99.965416    1.0614341     21666404 0.0012295546    187.24009    1676.8317   -4.4485139    2.2205056    189.46809            0 
  178000       177998    100.01331    1.1355116     21686220 0.0012284311    187.32348    1677.6288   -4.8906937    1.9697779     190.2444            0 
  178500       178498    99.997661    1.1908871     21691994 0.0012281041    187.83578    1677.9079   -4.5522404    2.0116087    190.37641            0 
  179000       178998    99.978241    1.1580426     21693060 0.0012280437    187.52294    1677.3057   -4.9064332     2.092672    190.33671            0 
  179500       179498    99.962996    1.0836398     21691393 0.0012281381    187.36092    1676.9165   -5.2913204    2.0006921    190.65154            0 
  180000       179998    99.998525   0.99123859     21700715 0.0012276105    187.47156    1677.5565     -4.75697    2.1265849    190.10195            0 
  180500       180498    100.02167   0.94329761     21727445 0.0012261003    188.27315    1678.7029   -4.1248444    2.1739578    190.22404            0 
  181000       180998    100.01163   0.90999707     21750915 0.0012247773    187.94864    1678.2289   -4.5295797    2.1409085    190.33731            0 
  181500       181498    99.983305   0.88343599     21794383 0.0012223345      188.086    1677.9442   -4.5611403     2.233187    190.41396            0 
  182000       181998    99.937204   0.89896052     21848640 0.0012192991    188.68711    1677.8583   -4.6814318    2.1306182    191.23792            0 
  182500       182498    100.01563   0.92034361     21876498 0.0012177464    188.77509     1679.115   -3.5883179    2.1315764    190.23183            0 
  183000       182998    100.05768   0.97037358     21862491 0.0012185266    187.39251     1678.359   -4.9885791    2.1390684    190.24202            0 
  183500       183498    99.994357    1.0783893     21842013  0.001219669    185.76653    1675.7894   -6.9479375    2.0850026    190.62946            0 
  184000       183998    99.987382     1.087843     21874869  0.001217837    187.47288    1677.3918   -4.8629228    2.0552835    190.28052            0 
  184500       184498    99.835376    1.1943161     21920797 0.0012152855     191.2912    1678.9451   -1.8274784    2.0808265    191.03785            0 
  185000       184998    100.03371    1.1359219     21979489 0.0012120403    188.51244    1679.1217   -3.8073766     2.050312     190.2695            0 
  185500       185498    100.09041    1.0823755     22024780 0.0012095479    186.78522    1678.2393   -4.7688213    2.0316258    189.52241            0 
  186000       185998    99.931362    1.0553485     22071055 0.0012070119    189.50746    1678.5916   -3.3111489    2.0929654    190.72564            0 
  186500       186498    99.967543    1.0673271     22092298 0.0012058513    188.64977    1678.2731   -4.4525596    2.0326547    191.06968            0 
  187000       186998    99.936041     1.038421     22115642 0.0012045785    188.66567    1677.8196   -4.4856165    2.0523469    191.09894            0 
  187500       187498    100.08573    1.0100577     22109800 0.0012048968    187.00351    1678.3879   -4.7673104    2.1032642    189.66755            0 
  188000       187998    100.02753     1.045161     22099187 0.0012054754    187.32644    1677.8437   -4.6248415    2.1065417    189.84474            0 
  188500       188498    100.00367    1.0294548     22090342  0.001205958    188.18444    1678.3461   -4.5018911    2.2043243      190.482            0 
  189000       188998    99.979699    1.0109419     22101425 0.0012053533    188.41891    1678.2234   -4.4871951    2.2064379    190.69967            0 
  189500       189498    99.902317   0.95505691     22167186 0.0012017775    190.35022    1679.0016   -2.8031179    2.1941574    190.95918            0 
  190000       189998    99.963923   0.92589909     22210449 0.0011994366    188.41179    1677.9812   -4.5244066    2.2126854    190.72351            0 
  190500       190498    99.943525   0.89048306     22267506 0.0011963633    189.66565    1678.9311   -3.3238546    2.1416913    190.84781            0 
  191000       190998    100.03098   0.98068063     22280460 0.0011956677    187.46571    1678.0343   -5.0440552    2.1461876    190.36358            0 
  191500       191498    100.01494    1.0116334     22310948 0.0011940338     188.4559    1678.7855    -4.412639    2.2562668    190.61227            0 
  192000       191998    99.990057    1.0642274     22335360 0.0011927287     188.5234    1678.4822   -4.3998461     2.064017    190.85922            0 
  192500       192498    100.04522    1.0771846     22361172  0.001191352    185.97829     1676.759   -6.6257118    2.0183783    190.58562            0 
  193000       192998    99.961159    1.1113601     22378864 0.0011904101    187.88961    1677.4178   -5.8724231    2.1668434    191.59519            0 
  193500       193498     100.0288    1.0507124     22356999 0.0011915743     187.2864    1677.8226   -5.6705884    2.0399496    190.91704            0 
  194000       193998    100.00145    1.0409211     22335060 0.0011927448    187.07266    1677.2012   -4.9884096    2.1196617    189.94141            0 
  194500       194498    99.964272    1.0040248     22357439 0.0011915509    189.50631    1679.0809   -3.6642042    2.1438659    191.02665            0 
  195000       194998     100.0078   0.90760534     22400137 0.0011892796      188.912    1679.1351   -4.1317886     2.183991     190.8598            0 
  195500       195498    99.965779   0.89317503     22443827 0.0011869645    189.45344    1679.0504   -3.5429021    2.2091424     190.7872            0 
  196000       195998    99.993844   0.92501661     22477521 0.0011851852    188.72583     1678.741   -4.2564211    2.2502222    190.73202            0 
  196500       196498    100.00925   0.89207027     22494331 0.0011842996    189.02947    1679.2742   -4.1372958    2.2757192    190.89104            0 
  197000       196998    100.02713   0.95558705     22499763 0.0011840136    187.57376     1678.085   -5.2211241    2.2533759    190.54151            0 
  197500       197498    99.969363   0.98281638     22536855 0.0011820649    188.58461     1678.235   -4.7359726    2.1102276    191.21036            0 
  198000       197998    99.920019    1.0179054     22585644 0.0011795115    188.51357    1677.4287   -5.0721152    2.0900026    191.49568            0 
  198500       198498    100.00629    1.0637865     22626340   0.00117739    186.72911    1676.9298   -6.2371648    2.0513102    190.91497            0 
  199000       198998    99.981575    1.0875791     22643549 0.0011764951    188.01442    1677.8468   -4.7561199    2.1785247    190.59202            0 
  199500       199498    99.966763     1.115613     22679681 0.0011746208    189.24415    1678.8558    -4.180201    2.2308094    191.19354            0 
  200000       199998     99.98541    1.1150123     22693901 0.0011738848    188.36887    1678.2584   -5.2789591    2.1075637    191.54026            0 
  200500       200498     99.99529    1.0430425     22700606 0.0011735381    186.98458    1677.0213   -6.3867195    2.1261169    191.24519            0 
  201000       200998    99.947702   0.97401173     22704928 0.0011733147      189.249    1678.5767   -4.4739958    2.1424444    191.58056            0 
  201500       201498    99.975559   0.91609559     22694722 0.0011738424    187.86261    1677.6054   -5.3836018    2.2656057    190.98061            0 
  202000       201998    100.01551   0.91143228     22676523 0.0011747844    188.27576    1678.6138   -5.0590278    2.2552056    191.07958            0 
  202500       202498     100.0156    0.9305446     22672693 0.0011749828    187.95571    1678.2952   -5.9360942    2.2201319    191.67168            0 
  203000       202998    100.08087   0.91831489     22669180  0.001175165    185.88015    1677.1922   -7.2648158    2.3026159    190.84235            0 
  203500       203498    100.02115   0.99708742     22681051 0.0011745499    186.94484    1677.3669   -6.2656944    2.1613143    191.04923            0 
  204000       203998    100.02166   0.97704736     22697131 0.0011737178    189.28905    1679.7188   -4.1532061    2.2356761    191.20658            0 
  204500       204498    99.872429    1.0408785     22695120 0.0011738218    189.22471    1677.4307   -4.8848135    2.3387516    191.77077            0 
  205000       204998    100.00659    1.0194628     22686491 0.0011742682    188.23884    1678.4441   -5.4467058    2.1678963    191.51765            0 
  205500       205498    100.09406   0.94004419     22662536 0.0011755095    186.33565    1677.8442   -6.6277307    2.1441994    190.81918            0 
  206000       205998    99.999448   0.91609712     22659688 0.0011756572    188.16409    1678.2628    -5.531512    2.2466651    191.44894            0 
  206500       206498    99.987837   0.93563271     22655623 0.0011758682    189.19702    1679.1227   -4.8652037    2.1000281     191.9622            0 
  207000       206998    99.998292    1.0034666     22650253  0.001176147    189.51668    1679.5982   -3.7586393     2.142726    191.13259            0 
  207500       207498     99.96999    1.1174731     22661667 0.0011755546     189.5847    1679.2445   -3.9805102    2.1742419    191.39097            0 
  208000       207998    100.08846    1.1683416     22669236 0.0011751621    187.15986     1678.585   -5.9008362     2.040816    191.01988            0 
  208500       208498    100.08503    1.1722497     22662096 0.0011755323     187.8884    1679.2623   -4.8376663    2.1025804    190.62349            0 
  209000       208998    99.978825    1.1886661     22633427 0.0011770213    189.76423    1679.5556   -4.5017976    2.0334053    192.23262            0 
  209500       209498     99.94587     1.172107     22614332 0.0011780152    190.97011    1680.2705   -3.3696033    2.1270597    192.21265            0 
  210000       209998    100.02651    1.0312555     22622727  0.001177578    188.93679    1679.4388    -4.548961    2.2493148    191.23643            0 
  210500       210498    100.01047   0.95327822     22644810 0.0011764297    189.94702      1680.21    -3.646119    2.2321791    191.36096            0 
  211000       210998    100.03214   0.87495873     22670500 0.0011750965    189.93686    1680.5228   -3.1928556    2.2914374    190.83828            0 
  211500       211498    99.977075   0.84165864     22678561 0.0011746788    188.84796    1678.6133   -5.5701191    2.2823167    192.13576            0 
  212000       211998    100.01928   0.79918595     22678751  0.001174669    188.98022    1679.3745   -4.8212201    2.2319723    191.56947            0 
  212500       212498    100.03505   0.87037942     22644420 0.0011764499    187.85016    1678.4794   -5.5070623    2.2460853    191.11113            0 
  213000       212998    99.956129    1.0608123     22649084 0.0011762076    188.32588    1677.7791   -5.3541559    2.1393611    191.54068            0 
  213500       213498    100.03742    1.1698162     22669589 0.0011751438    188.63487    1679.2994   -5.0768803     2.047054    191.66469            0 
  214000       213998    100.00914    1.3126083     22691903 0.0011739882    188.58978     1678.833   -5.3572133    2.0906799    191.85631            0 
  214500       214498    100.06194    1.3310399     22729399 0.0011720515    188.08942    1679.1193   -4.9494173    1.9602377     191.0786            0 
  215000       214998    99.990531      1.31738     22789879 0.0011689411    187.83141    1677.7973   -6.7125994    2.0487089     192.4953            0 
  215500       215498    100.00532    1.2357217     22860844 0.0011653124    187.28746    1677.4737   -5.9785588     2.110632    191.15539            0 
  216000       215998    100.05989    1.0914351     22939550 0.0011613142    186.80146    1677.8008   -6.4285496    2.0951798    191.13483            0 
  216500       216498    99.985044    0.9745606     23025322 0.0011569882    187.61439    1677.4985   -6.1809191    2.1716709    191.62364            0 
  217000       216998    100.06689   0.86495665     23081252 0.0011541846    188.30853    1679.4122   -5.0066674     2.265578    191.04962            0 
  217500       217498    100.00163   0.80824416     23098718 0.0011533119    190.55758    1680.6888   -3.6182268    2.3253204    191.85048            0 
  218000       217998    99.993974    0.8507965     23098527 0.0011533214    189.75759    1679.7747   -4.6707353    2.3023374    192.12599            0 
  218500       218498    100.01496   0.91238574     23077347 0.0011543799    189.26775    1679.5976   -5.2661071    2.2999146    192.23395            0 
  219000       218998    100.03869   0.99501462     23054767 0.0011555105    189.93186    1680.6153   -4.3975725    2.1310953    192.19834            0 
  219500       219498     100.0231    1.0473671     23049471  0.001155776    189.43036    1679.8816   -4.9555637    2.2071084    192.17882            0 
  220000       219998    100.01853    1.0745817     23041077 0.0011561971    188.64801     1679.031   -5.7456958    2.1449963    192.24871            0 
  220500       220498    99.996999    1.0680669     23064062 0.0011550449    189.22509    1679.2873   -4.8332669    2.0353665    192.02299            0 
  221000       220998    100.05328    1.1185508     23130161 0.0011517441    189.16787    1680.0688   -4.3517788    1.9405321    191.57912            0 
  221500       221498    99.957716    1.1760909     23193620 0.0011485928    189.74979    1679.2267   -4.9220939    2.0565198    192.61536            0 
  222000       221998    100.01153    1.1608495     23262406 0.0011451965    188.90073    1679.1794   -5.4723598    2.1584491    192.21464            0 
  222500       222498    100.05158    1.1040326     23330134 0.0011418719    188.07493    1678.9505    -5.787849    1.9940084    191.86877            0 
  223000       222998    100.03747    1.0423404     23375812 0.0011396407    189.00208    1679.6673   -4.5340641    2.0581539    191.47799            0 
  223500       223498    100.08425   0.99821671     23398928 0.0011385148    188.16211    1679.5245   -5.2775706    2.1887018    191.25098            0 
  224000       223998    99.997818    1.0104786     23428138 0.0011370953    189.49376    1679.5682   -4.5062722    2.2114304     191.7886            0 
  224500       224498    99.969087    1.0056598     23437888 0.0011366223    189.97891    1679.6252   -5.1618782    2.2778631    192.86293            0 
  225000       224998     99.92759    0.9768749     23465152 0.0011353017    191.22011    1680.2481    -3.261448    2.2438224    192.23774            0 
  225500       225498    99.958703    1.0237866     23473736 0.0011348865    190.48945     1679.981   -4.1275893    2.1685337    192.44851            0 
  226000       225998    100.01695   0.97034891     23501635 0.0011335393    190.81943     1681.179   -3.8883221     2.326509    192.38124            0 
  226500       226498    100.05222   0.97803476     23529408 0.0011322013    189.94636    1680.8314   -4.0859012    2.2653618     191.7669            0 
  227000       226998    99.911028     1.055824     23548976 0.0011312605    190.69041    1679.4716   -4.2885962    2.1190752    192.85993            0 
  227500       227498    99.966617    1.0575045     23547707 0.0011313214     188.6821    1678.2916    -6.124671    2.2322465    192.57452            0 
  228000       227998    99.984167    1.0138023     23544822 0.0011314601    189.26414    1679.1352   -5.5078409    2.2108285    192.56115            0 
  228500       228498    99.978907    1.0268528     23528578 0.0011322412    189.95497    1679.7476   -4.8273114    2.1620997    192.62018            0 
  229000       228998    100.03153    0.9720726     23521204 0.0011325962     189.0084    1679.5851   -5.1994286    2.3129932    191.89483            0 
  229500       229498    100.01347   0.92502105     23521056 0.0011326033    188.51569    1678.8234   -6.0809651    2.3563568     192.2403            0 
  230000       229998    100.00004   0.85388182     23518711 0.0011327163      188.882    1678.9895   -6.3441835    2.3843394    192.84184            0 
  230500       230498    99.975133    0.8008552     23544099 0.0011314948    190.41195    1680.1483   -4.6131206    2.2696846    192.75539            0 
  231000       230998    100.02632   0.80278719     23544905 0.0011314561    189.89685     1680.396   -4.2688506    2.3529216    191.81278            0 
  231500       231498     99.92218   0.93294724     23534537 0.0011319546    190.55721    1679.5046   -4.5615624     2.229424    192.88935            0 
  232000       231998    99.903875    1.0530272     23563263 0.0011305746    191.38599    1680.0606   -3.5300942    2.2428517    192.67323            0 
  232500       232498    100.01114     1.072397     23615643  0.001128067    190.86725    1681.1402   -3.4740668    2.2144449    192.12687            0 
  233000       232998    100.02248    1.1245961     23673584  0.001125306    189.26925    1679.7112   -5.3519751     2.112785    192.50844            0 
  233500       233498    99.953225    1.1196203     23806430 0.0011190265    191.22872    1680.6387   -3.9252271     2.112213    193.04173            0 
  234000       233998    100.01527    1.1046587     23912417 0.0011140666    191.43971    1681.7742   -3.1755732    2.0224046    192.59287            0 
  234500       234498    99.998521    1.1269469     23967879 0.0011114887    191.99316    1682.0781   -2.8038517    2.1573214    192.63969            0 
  235000       234998    100.06731    1.1241664     24013795 0.0011093634    190.18326    1681.2931   -4.0443232     2.164458    192.06312            0 
  235500       235498    100.02995    1.0843226     24044757 0.0011079349    190.30741    1680.8607   -3.9391863    2.0651885    192.18141            0 
  236000       235998    99.965802    1.0944304     24039263 0.0011081881    190.83172    1680.4291    -4.432628     2.041328    193.22302            0 
  236500       236498    99.979473    1.0866854     24041893 0.0011080669    190.55171    1680.3528   -4.3760441    2.0439108    192.88385            0 
  237000       236998    99.989379     1.045081     24042198 0.0011080528     190.1965    1680.1452   -4.8423632    2.1028061    192.93606            0 
  237500       237498    100.08963    1.0165037     24031730 0.0011085355    188.92524    1680.3678   -5.2629761    2.1836239    192.00459            0 
  238000       237998    100.00674   0.98186062     24047838  0.001107793    190.72932    1680.9368   -4.2418066    2.1505533    192.82058            0 
  238500       238498    99.971882   0.89350518     24095500 0.0011056017    190.29915    1679.9871   -4.2065159    2.2030768    192.30258            0 
  239000       238998    99.965354   0.84765594     24137231 0.0011036902    190.16164    1679.7523   -5.5550572     2.272469    193.44422            0 
  239500       239498    99.923579   0.85501607     24163062 0.0011025104    191.11631    1680.0845   -5.1354514     2.191253     194.0605            0 
  240000       239998    100.04341   0.89159259     24173034 0.0011020555    189.48365    1680.2374   -5.3179744    2.2510391    192.55058            0 
  240500       240498    99.977019    1.0054316     24172903 0.0011020615    190.02169    1679.7862   -5.2664138    2.2834378    193.00466            0 
  241000       240998    99.997315    1.1081061     24176248  0.001101909    190.66553    1680.7325   -4.5814883    2.2367517    193.01026            0 
  241500       241498    99.970549    1.1864493     24166631 0.0011023475    190.94897    1680.6171   -4.4971314     2.027434    193.41867            0 
  242000       241998    99.864862    1.1620446     24187987 0.0011013742    192.80293    1680.8962   -2.1737847    2.2023033    192.77441            0 
  242500       242498    99.968614    1.0319997     24250157 0.0010985507    191.87261    1681.5119   -3.6957223    2.3381926    193.23014            0 
  243000       242998    99.863754   0.94968825     24311322 0.0010957868    191.98284    1680.0596   -3.9987373    2.1637781     193.8178            0 
  243500       243498     100.0679   0.80228472     24380080 0.0010926964     189.4051    1680.5239   -5.3976517    2.2429953    192.55976            0 
  244000       243998    100.02207   0.77813759     24434382 0.0010902681    189.07568    1679.5115   -6.1050547    2.4059979    192.77474            0 
  244500       244498    99.898583   0.87967599     24459923 0.0010891296    191.75327     1680.349   -4.3319419    2.1871489    193.89807            0 
  245000       244998    99.958012    1.0138907     24479810 0.0010882448    192.05404    1681.5353   -3.3127307    2.0443172    193.32245            0 
  245500       245498    100.01927    1.1540654     24483774 0.0010880686    190.14911    1680.5433   -4.6579093    2.1108565    192.69616            0 
  246000       245998    100.12229    1.2170998     24492072    0.0010877    188.35028    1680.2794   -5.4678409    2.0736265    191.74449            0 
  246500       246498    100.04884    1.2363799     24503272 0.0010872028    190.31913    1681.1539   -4.5604497    2.0921727    192.78741            0 
  247000       246998    99.943198    1.2018377     24496472 0.0010875046    189.64084    1678.9014   -5.6171011    2.0157091    193.24223            0 
  247500       247498    99.983808    1.0446614     24498138 0.0010874306    190.55489    1680.4206   -5.2888812    2.1196786    193.72409            0 
  248000       247998    100.01207   0.89109762     24511814 0.0010868239    189.82246    1680.1093   -5.6193562    2.1926125    193.24921            0 
  248500       248498    100.04675   0.82057643     24534605 0.0010858143    189.68195    1680.4855   -5.6546403    2.1966555    193.13994            0 
  249000       248998    99.928027   0.78013168     24560569 0.0010846665    191.12945    1680.1639   -4.5421809    2.3211625    193.35047            0 
  249500       249498    99.976087   0.80825933     24568346 0.0010843231    191.70754    1681.4582   -4.3294337    2.2822483    193.75473            0 
  250000       249998    99.988252   0.86785219     24571864 0.0010841679    190.10372    1680.0356   -6.0152642    2.3146728    193.80431            0 
  250500       250498     99.98314   0.98923146     24585534 0.0010835651    190.19603    1680.0517   -6.0508433    2.1484637    194.09841            0 
  251000       250998    100.04324    1.0186315     24602446 0.0010828202    190.24307    1680.9943   -5.3318907    2.1660126    193.40895            0 
  251500       251498    100.04033    1.0994696     24599000 0.0010829719    190.80428    1681.5121   -4.7304207    2.1716544    193.36304            0 
  252000       251998    100.01854    1.1904178     24582775 0.0010836867     189.0965    1679.4797   -6.1565593    2.0711705    193.18189            0 
  252500       252498    99.999471    1.1238764     24570183 0.0010842421    190.36105    1680.4601   -5.2280525    2.1736692    193.41544            0 
  253000       252998    99.996166    1.0830406     24550040 0.0010851317    190.92819     1680.978   -4.6621229    2.1891174    193.40119            0 
  253500       253498    99.959833   0.98667106     24563576 0.0010845337    192.32163      1681.83   -3.0544103    2.2557916    193.12025            0 
  254000       253998      99.9899   0.87901855     24607234 0.0010826095    191.06536    1681.0218   -4.6453356    2.3425699    193.36813            0 
  254500       254498    100.03804   0.82601835     24639774 0.0010811798    190.32429     1680.998   -4.8539524    2.3016953    192.87654            0 
  255000       254998    99.862665   0.85869199     24659133  0.001080331    193.41263    1681.4731   -3.3205974    2.3838835    194.34935            0 
  255500       255498    99.911744   0.88316948     24678634 0.0010794773    191.94803    1680.7399   -4.4220878    2.4341737    193.93595            0 
  256000       255998    99.995634   0.87588704     24709597 0.0010781247    192.28396    1682.3258   -3.2212485    2.3431538    193.16206            0 
  256500       256498    99.937135   0.92425713     24747527 0.0010764723    192.99293    1682.1631   -2.7159384    2.2053542    193.50351            0 
  257000       256998     100.0805   0.93349574     24765511 0.0010756905    191.91328    1683.2197   -3.1778208    2.2113146    192.87978            0 
  257500       257498    99.956466   0.99427352     24757397 0.0010760431    192.54583    1682.0041   -3.8234891    2.1435797    194.22574            0 
  258000       257998    99.894572    1.1139588     24729708 0.0010772479    192.30373    1680.8397   -3.6986302    2.0188912    193.98347            0 
  258500       258498    99.943842    1.2030085     24762929 0.0010758027    192.24055    1681.5107   -4.4245781    1.9727274     194.6924            0 
  259000       258998    100.09081    1.3070027     24811197 0.0010737098    190.18385    1681.6439   -4.5801896    1.9039304    192.86011            0 
  259500       259498    100.05014    1.3579267     24847041 0.0010721609     190.5903    1681.4444   -4.8580924    1.9241611    193.52423            0 
  260000       259998    100.03097    1.2552117     24847074 0.0010721595    190.09277    1680.6613   -5.1499825    2.1794805    193.06327            0 
  260500       260498    100.03738    1.1603825     24833445 0.0010727479    190.34821    1681.0122   -5.2735664    2.0873231    193.53446            0 
  261000       260998    100.03554   0.91231334     24824634 0.0010731286    190.48211    1681.1187   -5.1888849    2.1792779    193.49171            0 
  261500       261498    99.983527   0.75152821     24807252 0.0010738806    190.97824    1680.8397   -4.3977209    2.3658551    193.01011            0 
  262000       261998    99.953328   0.71815724     24823088 0.0010731955    191.02882    1680.4403   -5.6849075    2.2815645    194.43217            0 
  262500       262498    99.884386   0.76024933     24857384 0.0010717148    194.06861    1682.4528   -2.6145673    2.4816536    194.20152            0 
  263000       262998    100.03288   0.79574977     24873236 0.0010710318    190.08465    1680.6816   -5.4591078    2.5140178    193.02974            0 
  263500       263498    100.02217   0.90630249     24897388 0.0010699928    191.00828    1681.4456   -4.5536602    2.2406237    193.32132            0 
  264000       263998    99.963409     1.005295     24901579 0.0010698127    191.40878    1680.9705    -4.389982    2.2974446    193.50131            0 
  264500       264498    100.02013    1.0835536     24906605 0.0010695968    190.28574    1680.6926   -5.5848451    2.2883559    193.58223            0 
  265000       264998    99.985926    1.0959785     24946262 0.0010678965    190.27681     1680.174   -6.1543035    2.2001412    194.23098            0 
  265500       265498    99.971876    1.0822167     24958467 0.0010673743    190.92857    1680.6164   -4.9585398    2.2320612    193.65505            0 
  266000       265998    99.935479    1.0564205     24969883 0.0010668863    192.21721    1681.3627   -4.0055974    2.3324359    193.89038            0 
  266500       266498    100.00417    1.0260734     24981353 0.0010663965     191.8602    1682.0293   -4.1724206    2.2924172     193.7402            0 
  267000       266998    99.951915    1.0279285     24978634 0.0010665125    192.38253    1681.7729   -4.2065322    2.2129503    194.37611            0 
  267500       267498    99.980872   0.96913985     25007587 0.0010652777    191.49252    1681.3144    -4.186686    2.2796458    193.39956            0 
  268000       267998    99.980273   0.98208883     25025053 0.0010645343    191.58268    1681.3957   -4.5077814    2.3113747    193.77909            0 
  268500       268498    100.03279    0.9525234     25018904 0.0010647959    190.94048    1681.5361   -5.0554079    2.1498276    193.84606            0 
  269000       268998    100.04344   0.95410556     25013177 0.0010650397    190.50089    1681.2551   -5.7302898    2.2723233    193.95885            0 
  269500       269498    99.962619    1.0268438     25021942 0.0010646666    190.82597    1680.3759   -5.5735555    2.2810185     194.1185            0 
  270000       269998    100.01044    1.0371351     25028291 0.0010643965    191.21846     1681.481   -4.3799354    2.2508239    193.34757            0 
  270500       270498     100.0219    1.0116134     25022378  0.001064648    192.47739    1682.9107   -3.6723104    2.3444331    193.80527            0 
  271000       270998     99.94287    1.0291334     25031696 0.0010642517    193.29567    1682.5513   -3.1049556    2.3978496    194.00277            0 
  271500       271498    99.984584   0.97478321     25059360 0.0010630769    192.80983    1682.6871   -3.5723769    2.1951724    194.18704            0 
  272000       271998    99.986382   0.95643351     25088267  0.001061852    192.68648    1682.5905   -3.9129561    2.1919304     194.4075            0 
  272500       272498    100.04365    0.9976599     25108655 0.0010609898    192.22494    1682.9824   -3.6992515    2.1891289    193.73506            0 
  273000       272998    99.993286    1.1261403     25125527 0.0010602773    193.47057    1683.4775   -3.2402298    2.0300543    194.68074            0 
  273500       273498    100.07987     1.209476     25104995 0.0010611444    190.36828    1681.6653   -5.5856928    1.9968577    193.95712            0 
  274000       273998    99.996522      1.27151     25120955 0.0010604703      191.562    1681.6171   -4.8452677    2.0670799    194.34019            0 
  274500       274498    100.07777    1.2496797     25129683  0.001060102    190.09336    1681.3592   -5.1137015     2.009275    193.19779            0 
  275000       274998    99.947472    1.1945532     25149389 0.0010592713      192.146    1681.4702   -4.5543721    2.1639167    194.53645            0 
  275500       275498    99.919398    1.0635979     25182341 0.0010578852    192.13696    1681.0428   -4.5902044    2.2950595     194.4321            0 
  276000       275998    100.06046   0.94870929     25238499 0.0010555313    191.07943    1682.0872   -5.1554397     2.273124    193.96175            0 
  276500       276498    100.05095   0.87023815     25279037 0.0010538386    191.73878    1682.6049   -4.3722377    2.3692524    193.74176            0 
  277000       276998     99.98062   0.85351848     25299722  0.001052977    191.60981     1681.428   -5.5626822    2.3064862    194.86601            0 
  277500       277498    100.02583   0.90752552     25338499 0.0010513656    190.42616     1680.918   -6.4262184    2.3554358    194.49695            0 
  278000       277998    99.935376   0.95834214     25399602 0.0010488363    192.48726    1681.6312   -4.7316618    2.3632719    194.85565            0 
  278500       278498    99.983654   0.95103022     25469080 0.0010459752    193.71779    1683.5812   -3.1930807    2.4009562    194.50991            0 
  279000       278998    100.05227   0.92684671     25514763 0.0010441024    192.91724     1683.803   -3.6954312    2.4084292    194.20425            0 
  279500       279498    99.923212   0.93674004     25533935 0.0010433185    194.95331     1683.916   -2.5492556    2.4853463    195.01722            0 
  280000       279998    100.01712   0.96733867     25530159 0.0010434728     193.6609    1684.0229   -2.5541936     2.268496     193.9466            0 
  280500       280498    100.08009   0.99232172     25552230 0.0010425715    191.14932    1682.4497   -4.8279484    2.1935175    193.78375            0 
  281000       280998    99.994414    1.1172822     25567369 0.0010419541    192.43135    1682.4551   -5.3115798    2.2593982    195.48353            0 
  281500       281498    99.894696    1.1572797     25606013 0.0010403817    193.30843    1681.8462   -4.2324116    2.2741824    195.26666            0 
  282000       281998      99.9728    1.1757176     25644567 0.0010388175     193.1194     1682.821   -3.8510919    2.1736801    194.79681            0 
  282500       282498    100.05332    1.1067582     25658575 0.0010382504     191.4272    1682.3287   -5.3283065    2.0718381    194.68367            0 
  283000       282998    100.05165     1.039811     25654507  0.001038415    192.23554    1683.1121   -4.0608674    2.1826791    194.11372            0 
  283500       283498    99.989645   0.99503912     25616948 0.0010399376    193.45839     1683.411   -3.2858383    2.2153655    194.52886            0 
  284000       283998    99.978096   0.94951719     25583811 0.0010412845     194.5522    1684.3328   -2.8809167    2.3237966    195.10932            0 
  284500       284498    99.893764   0.90515456     25576115 0.0010415978    194.92853    1683.4524    -3.542712    2.4383868    196.03286            0 
  285000       284998    99.952121   0.91787389     25576215 0.0010415938    193.35463    1682.7481    -4.069323    2.3616465    195.06231            0 
  285500       285498    99.999806   0.92038687     25607398 0.0010403254    192.23022    1682.3343   -4.9855324    2.3077605      194.908            0 
  286000       285998    100.06498   0.96012788     25635077 0.0010392021    191.05523    1682.1305   -5.8753081    2.2607892    194.66974            0 
  286500       286498    99.877205    1.0580606     25667229 0.0010379004    193.30543    1681.5826   -4.1757386    2.1867799    195.29439            0 
  287000       286998    100.03268    1.1024198     25706587 0.0010363113    192.15552    1682.7494   -4.4841903    2.2018279    194.43789            0 
  287500       287498    100.00723    1.1211517     25726708 0.0010355008     192.9762    1683.1909   -4.0631562    2.3052783    194.73408            0 
  288000       287998     100.0553    1.1533068     25712083 0.0010360897    192.63263    1683.5636   -4.0437189    2.1594173    194.51693            0 
  288500       288498    99.918503    1.2167794     25700121  0.001036572    195.68162    1684.5742   -2.8779136    2.1559725    196.40356            0 
  289000       288998    100.05406    1.1102645     25682650 0.0010372772    193.11828    1684.0307   -3.7444497    2.1848398    194.67789            0 
  289500       289498    99.986324    1.0517402     25704488 0.0010363959    193.51257    1683.4157   -3.5646654    2.3144955    194.76274            0 
  290000       289998    100.02287   0.95454823     25753870 0.0010344086    193.62179    1684.0695   -3.0002403    2.2442355     194.3778            0 
  290500       290498    100.03281   0.92159407     25798993 0.0010325994    193.95683    1684.5526   -2.6948338    2.3293985    194.32227            0 
  291000       290998     99.99954   0.89152461     25849233 0.0010305925    194.12009    1684.2202   -3.6794835    2.3297641    195.46981            0 
  291500       291498    99.992803   0.87336548     25879101 0.0010294031    193.60679    1683.6065   -3.9992571    2.5016062    195.10444            0 
  292000       291998    100.01488   0.93652602     25900931 0.0010285355    193.27113    1683.5998   -4.2955534    2.3756612    195.19102            0 
  292500       292498    99.983005   0.95027336     25930439  0.001027365    193.11547    1682.9692   -4.4789641     2.492951    195.10148            0 
  293000       292998    99.989163   0.93458987     25970110 0.0010257956    193.62438    1683.5698   -3.6140347    2.6436974    194.59472            0 
  293500       293498    100.01661   0.90930647     25993417 0.0010248759    193.84363    1684.1981   -3.4039934     2.518612    194.72901            0 
  294000       293998    99.944585   0.96189961     26026882 0.0010235581    195.41329    1684.6945   -2.3722447    2.3515633    195.43398            0 
  294500       294498    99.963469   0.93688534     26084202 0.0010213088     196.2713    1685.8339   -1.6832175    2.4095153      195.545            0 
  295000       294998     99.90378   0.99136625     26127393 0.0010196205    195.66162    1684.3348   -1.7265587    2.4217868     194.9664            0 
  295500       295498     99.97597   0.98394335     26151918 0.0010186643    195.30017     1685.049   -2.4814549    2.4292819    195.35234            0 
  296000       295998    100.04128    1.0104663     26127869 0.0010196019    193.56169    1684.2837   -2.9632848    2.4615555    194.06342            0 
  296500       296498    99.995814    1.0542859     26108040 0.0010203763    194.22101    1684.2656   -3.2910687      2.17858     195.3335            0 
  297000       296998    99.999044    1.0842017     26070563 0.0010218432    193.94718    1684.0399   -2.9394604    2.1153265    194.77131            0 
  297500       297498    99.971848    1.1340827     26046009 0.0010228064    194.72515    1684.4126   -3.1399389    2.3416685    195.52342            0 
  298000       297998    99.997086    1.1396569     26045982 0.0010228075    195.37136    1685.4349   -2.3307374    2.2779566    195.42415            0 
  298500       298498    100.07985    1.1421858     26059923 0.0010222604    191.55324    1682.8501   -5.5745853     2.160088    194.96774            0 
  299000       298998    99.981463    1.0906455     26092624 0.0010209792     191.7515    1681.5822   -6.0171472    2.2772622    195.49138            0 
  299500       299498    100.07433   0.99200087     26092727 0.0010209752     191.0547    1682.2692   -5.9896443    2.2111661    194.83318            0 
  300000       299998    100.06795   0.91749249     26048135  0.001022723    191.64654     1682.766   -5.7779787    2.4353983    194.98912            0 
  300500       300498     99.98973   0.91395662     26017447 0.0010239293     192.8725    1682.8264   -4.9537428    2.2716917    195.55456            0 
  301000       300998    100.01393   0.92430543     26028785 0.0010234833      193.997    1684.3116   -3.2874711    2.3063386    194.97814            0 
  301500       301498    99.953082    1.0050655     26074919 0.0010216724    194.43878    1683.8466   -3.7844059     2.530562    195.69263            0 
  302000       301998    100.06778    1.0668692     26109848 0.0010203057    192.95771    1684.0747   -4.0651702    2.2983589    194.72452            0 
  302500       302498    100.00986    1.1090417     26146531 0.0010188742    193.22828    1683.4822   -4.5960202    2.2575455    195.56675            0 
  303000       302998    100.00867     1.175065     26186019 0.0010173378    193.87999    1684.1161   -3.6387441    2.1530461    195.36569            0 
  303500       303498    100.02176    1.1502769     26205039 0.0010165994    194.61007    1685.0412   -3.1074777     2.135537    195.58201            0 
  304000       303998    99.963729    1.1516738     26183210 0.0010174469    192.79259    1682.3591   -5.5773641    2.1756015    196.19435            0 
  304500       304498    99.949705    1.0827802     26230009 0.0010156316    194.89144    1684.2489   -3.4334984    2.2521634    196.07278            0 
  305000       304998    100.02615   0.99034543     26291746 0.0010132467    194.14201    1684.6386   -3.4610224     2.353668    195.24937            0 
  305500       305498    100.04144    0.9107972     26307933 0.0010126233    192.40089    1683.1253   -5.2485308    2.2808944    195.36853            0 
  306000       305998    99.904673   0.88304214     26330197 0.0010117671    193.80702    1682.4935   -4.7283136    2.4250905    196.11025            0 
  306500       306498    99.971765   0.85216689     26334079 0.0010116179    192.58142    1682.2676   -6.1388443    2.5483498    196.17191            0 
  307000       306998    99.962389   0.87317523     26375703 0.0010100214    192.52238    1682.0689   -5.8643492    2.5148084    195.87192            0 
  307500       307498    100.03361    0.9401044     26398853 0.0010091357    193.30127    1683.9091   -4.0633895    2.5451315    194.81952            0 
  308000       307998    100.00538   0.96822971     26388208 0.0010095428    192.06309    1682.2503   -5.3118577    2.5376214    194.83733            0 
  308500       308498    100.02346    1.0171852     26387535 0.0010095686    193.30081    1683.7574   -4.4741592    2.4338281    195.34114            0 
  309000       308998    100.00415    0.9921162     26356711 0.0010107492    194.44014    1684.6089   -4.4047053     2.501805    196.34304            0 
  309500       309498    99.974114    1.0192166     26333519 0.0010116394    192.77597    1682.4972   -5.6110907    2.4172969    195.96976            0 
  310000       309998    100.02692    1.0157573     26348678 0.0010110574    193.09829    1683.6064   -4.9723536    2.3049275    195.76572            0 
  310500       310498    100.07244   0.96557547     26378401 0.0010099181    193.37824    1684.5646   -3.9091278    2.4538503    194.83352            0 
  311000       310998    100.03096   0.96188755     26404742 0.0010089107    194.18517    1684.7534   -3.2841572    2.4885881    194.98074            0 
  311500       311498     99.99612   0.89663259     26410051 0.0010087078    195.07101    1685.1201   -2.8892022     2.287918    195.67229            0 
  312000       311998    99.876193   0.92525729     26422248 0.0010082422    197.85613    1686.1182   -2.0964698    2.4071118    197.54549            0 
  312500       312498    100.01441   0.90362478     26421961 0.0010082532    195.41327     1685.735   -2.5563912     2.451478    195.51818            0 
  313000       312998    100.04836    1.0260521     26410370 0.0010086957    194.29923    1685.1267   -3.6404842    2.3710948    195.56862            0 
  313500       313498    100.07992    1.1372429     26417422 0.0010084264    193.13124     1684.429    -4.438062    2.1330721    195.43623            0 
  314000       313998    100.00054    1.1990354     26423891 0.0010081795    193.55921    1683.6742    -4.995211     2.230798    196.32363            0 
  314500       314498    99.949031    1.1528111     26471177 0.0010063786    194.36635    1683.7138     -4.26426    2.3963083     196.2343            0 
  315000       314998     100.0258    1.1099625     26522484 0.0010044318    193.50037    1683.9918   -4.7870354    2.1371928    196.15022            0 
  315500       315498    100.02717    1.0214801     26520265 0.0010045158    192.44777    1682.9596   -5.6096639    2.2408769    195.81655            0 
  316000       315998    99.963668   0.97826666     26502137 0.0010052029    194.32109    1683.8867   -3.5674032    2.3711532    195.51734            0 
  316500       316498    100.04495     1.005046     26467028 0.0010065364    194.74361    1685.5204   -3.4194562    2.4024938    195.76057            0 
  317000       316998    99.984265    1.0181635     26436139 0.0010077124    194.46247    1684.3349   -4.1491813     2.398378    196.21328            0 
  317500       317498    100.06161    1.0285997     26423592 0.0010081909    192.47044    1683.4955   -5.3436628    2.2385974    195.57551            0 
  318000       317998    100.03793    1.0388844     26456799 0.0010069255    192.28995     1682.962   -5.9609855    2.1848521    196.06609            0 
  318500       318498    100.04682    1.0397963     26491309 0.0010056138    190.10336     1680.908   -7.1560702    2.2797356    194.97969            0 
  319000       318998    100.00077    1.0774243     26487025 0.0010057764    193.06575    1683.1842   -5.8157882    2.2882037    196.59333            0 
  319500       319498    99.954716    1.0787931     26479222 0.0010060728    193.56228    1682.9944   -5.7973049    2.2567577    197.10283            0 
  320000       319998    100.01265    1.0053073     26478751 0.0010060907    192.74395    1683.0394   -5.0247173    2.3752555    195.39341            0 
  320500       320498    99.983538    1.0720219     26471715 0.0010063581     193.3421    1683.2037   -6.3013773     2.225183    197.41829            0 
  321000       320998    99.993483    1.0294622     26518081 0.0010045986    191.53067    1681.5405   -6.8683807     2.217418    196.18164            0 
  321500       321498     100.0783    1.0203876     26557777  0.001003097    189.96369    1681.2374    -7.720062    2.3330714    195.35068            0 
  322000       321998    99.937483    1.0492537     26585122 0.0010020652    193.44547    1682.6208    -5.235898     2.247489    196.43387            0 
  322500       322498    99.953791      1.02622     26586617 0.0010020089    192.83184    1682.2502   -6.3243193    2.4725253    196.68364            0 
  323000       322998    100.00695   0.98535439     26595716  0.001001666    192.29873    1682.5092   -5.8698704    2.5099365    195.65867            0 
  323500       323498    100.08485    0.8874387     26610551 0.0010011077    192.14988    1683.5211   -5.3735176    2.3589837    195.16442            0 
  324000       323998    100.02893   0.88223201     26628826 0.0010004206    194.06169    1684.5997   -4.0794678    2.5055818    195.63557            0 
  324500       324498    99.967932   0.88949999     26610037  0.001001127    195.39591     1685.025   -3.9264389    2.5274263    196.79492            0 
  325000       324998    100.00295   0.90908736     26577721 0.0010023443    193.33918      1683.49   -6.1266534    2.4502962    197.01554            0 
  325500       325498      100.016    0.9454017     26599740 0.0010015145    194.66512    1685.0104   -3.6050918    2.5030208     195.7672            0 
  326000       325998    100.00231   0.95883717     26636071 0.0010001485    196.12116    1686.2625   -3.2262805    2.5183522    196.82909            0 
  326500       326498    100.10553   0.98908818     26667108 0.00099898444    193.60665    1685.2861   -4.4085306    2.3566494    195.65853            0 
  327000       326998    100.01932    1.0240058     26720625 0.00099698365    193.79244    1684.1873    -4.154092    2.2701509    195.67638            0 
  327500       327498    100.04943    1.0696905     26742860 0.00099615471    193.07853    1683.9221   -5.5837803    2.3213035    196.34101            0 
  328000       327998    99.934579    1.1560294     26764816 0.00099533752    196.41433    1685.5464   -3.2952575    2.1977688    197.51182            0 
  328500       328498    100.04651    1.1651903     26760827 0.00099548591     194.4295    1685.2295   -3.6496317    2.3110262    195.76811            0 
  329000       328998    99.897532     1.206624     26740501 0.0009962426    196.54128    1685.1213   -2.7450535    2.3796152    196.90671            0 
  329500       329498    100.00146     1.054718     26756973 0.00099562929     194.1246    1684.2532   -4.4330399    2.2853305    196.27231            0 
  330000       329998    100.03997    0.9513655     26787010 0.00099451285    193.27408    1683.9766    -5.188631    2.3084364    196.15427            0 
  330500       330498    99.990455    0.8685942     26821814 0.00099322237    193.10422    1683.0689   -5.7309176    2.3955404     196.4396            0 
  331000       330998    99.957045   0.90476289     26844944 0.0009923666    195.70758    1685.1744   -3.4042344    2.5749927    196.53683            0 
  331500       331498     99.92576    0.9194459     26866747 0.00099156126    196.93049    1685.9312   -2.6834922    2.6673748     196.9466            0 
  332000       331998    99.949425   0.97996948     26896021 0.00099048206    195.98118    1685.3345   -2.5039555    2.5244454    195.96069            0 
  332500       332498    99.997926    1.0101709     26947932 0.00098857402    195.02813    1685.1042   -3.6875503    2.3585375    196.35714            0 
  333000       332998    99.990265    1.0392834     27003224 0.00098654983    193.79209     1683.754   -4.9068505    2.1915931    196.50735            0 
  333500       333498    99.902296    1.0434635     27062023 0.00098440631    196.09941    1684.7505   -3.8098883    2.3611257    197.54817            0 
  334000       333998    100.02872    1.1151967     27115457 0.00098246642    193.81432    1684.3492   -5.7523094    2.3340091    197.23262            0 
  334500       334498    100.01982    1.1325395     27189514 0.00097979044    192.88827    1683.2906   -5.4346211    2.2464035    196.07648            0 
  335000       334998    100.08307    1.1298755     27221903 0.00097862467    192.73726    1684.0821   -5.5950854    2.2213249    196.11102            0 
  335500       335498     99.99679    1.1162667     27201763 0.00097934924    192.41325    1682.4724   -6.6281501    2.4164483    196.62495            0 
  336000       335998    99.983322    1.0463752     27173383 0.00098037208    193.40355     1683.262   -5.8988663    2.4257982    196.87662            0 
  336500       336498    99.950112   0.97232548     27134691 0.00098177002    194.51788    1683.8814   -5.2618675    2.4050055    197.37475            0 
  337000       336998    100.05876   0.90554498     27111178 0.00098262148    191.21985    1682.2024   -7.3411402    2.4574993    196.10349            0 
  337500       337498    99.980245   0.87826231     27108879 0.0009827048    192.86724    1682.6798   -6.0032193    2.5725261    196.29793            0 
  338000       337998    99.800057   0.94004146     27100984 0.00098299109    196.45857    1683.5861   -3.2290138    2.6545932    197.03299            0 
  338500       338498    99.991465   0.89908995     27103057 0.0009829159    194.33929    1684.3191   -5.1273022    2.5988009     196.8678            0 
  339000       338998    99.980267   0.89596282     27104618 0.00098285929     193.9137    1683.7266   -5.3275692    2.5550688     196.6862            0 
  339500       339498    100.00691    0.9015116     27129608 0.00098195394    193.16364    1683.3736   -5.8702773    2.6025384    196.43138            0 
  340000       339998    99.914819   0.97666473     27152646 0.00098112081    194.81567    1683.6533   -5.3358247    2.5910884    197.56041            0 
  340500       340498    100.01869   0.97705733     27168560 0.00098054611    191.98941    1682.3749    -7.302803    2.5057165    196.78649            0 
  341000       340998    99.907327    1.0593941     27179996 0.00098013356    193.53262    1682.2586   -6.4185511    2.3997373    197.55144            0 
  341500       341498     99.98724    1.0280102     27200350 0.00097940011    193.77544    1683.6922    -5.668205    2.3750765    197.06856            0 
  342000       341998    100.06449   0.96583491     27198689 0.00097945994    192.70287    1683.7707   -6.2681122    2.4796817     196.4913            0 
  342500       342498    99.999333   0.96826879     27183349 0.00098001266    192.95948    1683.0565   -5.5305197    2.5199686    195.97003            0 
  343000       342998    99.969446   0.91258829     27188092 0.0009798417    194.87912    1684.5308   -4.8750534    2.4955905    197.25858            0 
  343500       343498    99.997532   0.91174246     27179266 0.00098015988    193.41511    1683.4853   -5.7585928    2.5772751    196.59643            0 
  344000       343998    100.03235   0.87474496     27187608 0.00097985912    194.83944    1685.4284    -4.128143     2.404552    196.56303            0 
  344500       344498     99.95903   0.94653258     27206386 0.00097918284    194.41414    1683.9106   -4.9678781    2.3307776    197.05124            0 
  345000       344998    99.973243    0.9924647     27253910 0.00097747536    193.93889    1683.6471   -5.7425072    2.3865796    197.29482            0 
  345500       345498    100.00803    1.0256498     27282080 0.0009764661    193.23727    1683.4639   -6.1412558    2.4713245     196.9072            0 
  346000       345998    100.02695    1.0906468     27278400 0.00097659781    193.61843     1684.127   -5.4624653     2.142725    196.93817            0 
  346500       346498    100.06713    1.1353733     27261817 0.00097719187    192.55844    1683.6658   -5.6511862    2.2873877    195.92224            0 
  347000       346998    100.00373    1.1658886     27258515 0.00097731025    193.96293    1684.1254   -5.1087828    2.2735772    196.79814            0 
  347500       347498    100.02977    1.1756312     27259399 0.00097727854    193.42097    1683.9715   -5.3764675    2.1918564    196.60558            0 
  348000       347998    99.976978     1.154164     27269451 0.00097691832    193.01704    1682.7809   -6.5206057    2.2081786    197.32946            0 
  348500       348498    99.877979    1.1585622     27273941 0.00097675748    195.36764    1683.6563   -4.6406941    2.3072973    197.70104            0 
  349000       348998    100.08616    1.0711653     27261668 0.00097719721    191.54654    1682.9373   -7.0683923    2.1778228    196.43711            0 
  349500       349498    100.08749   0.97487817     27268202 0.00097696304    192.85202    1684.2626   -5.3693302     2.286566    195.93478            0 
  350000       349998    99.986059   0.95705574     27278036 0.00097661085    195.51256    1685.4118   -4.3891145    2.3573055    197.54437            0 
  350500       350498    99.972124   0.89213489     27316395 0.00097523943    195.14119    1684.8327    -4.815976     2.403677    197.55349            0 
  351000       350998     99.97266   0.92121712     27376058 0.00097311402    195.32977    1685.0293   -4.0176079    2.3307856    197.01659            0 
  351500       351498    100.04223   0.97927848     27403523 0.00097213873    195.53453    1686.2708   -3.4656607     2.357915    196.64228            0 
  352000       351998    100.09833     1.051176     27357225 0.00097378393    192.57443    1684.1466   -6.6174407    2.3858455    196.80603            0 
  352500       352498    100.00147    1.1554834     27317217 0.00097521009     193.6395    1683.7684   -5.7795443    2.2346793    197.18437            0 
  353000       352998     99.94958    1.1900499     27297276 0.00097592249     194.0399    1683.3955    -5.890645    2.2273157    197.70323            0 
  353500       353498    100.00466    1.1552824     27290612 0.00097616082    192.83048    1683.0069   -6.2544826    2.3836472    196.70132            0 
  354000       353998    99.958372    1.1440891     27299546 0.00097584135    193.20681    1682.6935   -7.2248738    2.2639751    198.16771            0 
  354500       354498     100.0518    1.0206394     27321722 0.00097504931    192.59295    1683.4718    -6.582309    2.4497891    196.72547            0 
  355000       354998    100.00088   0.92373231     27372487 0.00097324097    193.66262    1683.7828   -5.0097327     2.478781    196.19358            0 
  355500       355498    100.05754   0.85312987     27407629 0.00097199309    192.79289    1683.7573   -6.5489294    2.5196499    196.82217            0 
  356000       355998    99.983083    0.8131516     27425520 0.00097135902    194.19864    1684.0535   -5.1486741    2.6111177     196.7362            0 
  356500       356498    100.01224    0.7909234     27433411 0.00097107962    193.92804    1684.2173   -5.4757844    2.5595113    196.84431            0 
  357000       356998    99.979798   0.89876079     27414850 0.00097173706    195.38066    1685.1866   -4.6634876    2.5454767    197.49867            0 
  357500       357498    99.913727     1.035089     27390110 0.00097261478    196.07901    1684.9004   -4.0058761    2.5760978    197.50879            0 
  358000       357998    99.996984    1.0935594     27389015 0.00097265367    195.13076    1685.1928   -4.4191222     2.364402    197.18548            0 
  358500       358498     100.0325    1.1308742     27396476 0.00097238878    193.50365    1684.0948   -5.8931485    2.2189532    197.17785            0 
  359000       358998     100.0851    1.1384343     27432311 0.00097111854    192.91332    1684.2884   -5.3728809     2.300443    195.98576            0 
  359500       359498    100.00782    1.1204386     27481490 0.00096938068    195.07033    1685.2938   -4.4107961    2.2201426    197.26098            0 
  360000       359998    100.04081    1.0833603     27502907 0.00096862584    193.68313    1684.3982   -5.8016959    2.2656719    197.21915            0 
  360500       360498    99.969274    1.0786865     27537676 0.00096740285    194.47134    1684.1204   -5.1116732     2.357515     197.2255            0 
  361000       360998    99.941546    1.0301481     27546299    0.0009671    196.62068    1685.8566   -3.7765034    2.4892787    197.90791            0 
  361500       361498    99.984586   0.96815408     27535602 0.00096747572    195.10643    1684.9837   -4.3531856     2.498402    196.96121            0 
  362000       361998    100.04888   0.87128585     27505688 0.00096852791    193.19158    1684.0269    -5.999931    2.4857188    196.70579            0 
  362500       362498    99.863923   0.83363188     27499195 0.00096875658    196.76963    1684.8489   -3.8228183    2.6339826    197.95847            0 
  363000       362998    99.970553   0.82281881     27539507 0.00096733852    196.09725    1685.7654   -4.0726772    2.3695892    197.80034            0 
  363500       363498    100.03228    0.8886821     27582399 0.00096583425    194.96372    1685.5517    -4.502441    2.3427486    197.12341            0 
  364000       363998    99.983006     1.032028     27625812 0.00096431649     195.7724    1685.6261   -4.4770999    2.4271596    197.82234            0 
  364500       364498    99.962182    1.1504484     27638369 0.00096387837    197.31282    1686.8562   -3.0928631    2.2963138    198.10937            0 
  365000       364998    100.00803    1.2297809     27592398 0.00096548426    194.62227    1684.8488   -4.6858618    2.2733358     197.0348            0 
  365500       365498    100.04522    1.2847791     27580364 0.00096590553     193.2824    1684.0632    -5.924018    2.2733251    196.93309            0 
  366000       365998    100.03019      1.27396     27584562 0.00096575854     193.5916    1684.1484   -5.4108715    2.0955866    196.90688            0 
  366500       366498    99.983972    1.2076685     27596489 0.00096534113     195.4425    1685.3106   -4.1927988    2.1758006     197.4595            0 
  367000       366998    100.01036    1.1617288     27596977 0.00096532405     196.3807    1686.6421   -3.5524698    2.2056788     197.7275            0 
  367500       367498    99.996151    1.1163387     27610060 0.00096486665    196.06568    1686.1153   -3.6354003    2.2503636    197.45071            0 
  368000       367998    100.00124    0.9942611     27642157 0.00096374626    196.02935    1686.1548   -3.8126544    2.4190365    197.42297            0 
  368500       368498     100.0259   0.93034911     27662066 0.00096305265    195.25522    1685.7482   -4.6192242    2.6095394    197.26491            0 
  369000       368998    99.976823   0.80989369     27695002 0.00096190734    194.62945     1684.391   -4.9536897    2.5875329     196.9956            0 
  369500       369498    99.890087   0.77363474     27713504 0.00096126517    197.30786     1685.777   -3.0996208    2.5879994    197.81948            0 
  370000       369998    99.917349    0.7440232     27709472 0.00096140505    198.28374    1687.1591   -2.2645876    2.6985433    197.84979            0 
  370500       370498    100.05649   0.73597352     27710178 0.00096138055    196.25255    1687.2013    -3.051683    2.6944829    196.60975            0 
  371000       370998    100.06622   0.83321939     27723326 0.00096092459    196.51659    1687.6103   -2.4157149    2.4885993    196.44371            0 
  371500       371498    99.983785   0.96578689     27699631 0.00096174661    196.64219    1686.5075   -3.4098307    2.5374501    197.51457            0 
  372000       371998    99.963726    1.1097202     27676830 0.00096253891    196.05366    1685.6201   -4.4774202    2.3782878    198.15279            0 
  372500       372498    100.05286    1.1242782     27650364 0.00096346023    194.61632    1685.5109   -4.7661058    2.3344682    197.04796            0 
  373000       372998    100.07205    1.1546982     27642893 0.00096372061    193.43401    1684.6146   -5.8237108    2.3394943    196.91822            0 
  373500       373498    100.04011    1.1184553     27665927 0.00096291826      195.944    1686.6487   -3.2031097    2.3566398    196.79047            0 
  374000       373998    100.02957    1.0761134     27630128 0.00096416586    196.59799    1687.1456   -3.2494827    2.2483027    197.59917            0 
  374500       374498    100.00109    1.0320772     27585465 0.00096572691    195.85884     1685.982   -3.8102161    2.4571856    197.21188            0 
  375000       374998    99.946686    1.0100088     27567588 0.00096635315    197.01327    1686.3258   -3.5695584    2.4907015    198.09213            0 
  375500       375498     99.95252   0.96313054     27548125 0.00096703589    196.20265    1685.6021   -4.3739106    2.3995572      198.177            0 
  376000       375998    99.965672   0.89930583     27562694 0.00096652477    196.76907    1686.3645   -3.7728685    2.5415169    198.00043            0 
  376500       376498    100.04329   0.81613649     27572671 0.00096617502    194.19102     1684.943   -5.3079575    2.5377241    196.96125            0 
  377000       376998     100.0458   0.75947133     27579406 0.00096593908    193.85614    1684.6456   -5.5853267    2.5654058    196.87606            0 
  377500       377498    99.937288   0.78999344     27601133 0.00096517872    195.63365    1684.8061   -5.1848053    2.6957074    198.12275            0 
  378000       377998    100.04113   0.80272407     27605404 0.0009650294    195.29205    1686.0119   -4.5093883    2.5322018    197.26923            0 
  378500       378498    99.975484   0.93663463     27594950 0.00096539495    196.94658    1686.6882   -3.5261302    2.3501802    198.12253            0 
  379000       378998    99.941916    1.0594441     27584239 0.00096576984     197.8539    1687.0953   -2.1435018    2.3434005      197.654            0 
  379500       379498    100.02699     1.139856     27598401 0.00096527426    196.95582    1687.4649   -3.0668262    2.3171226    197.70553            0 
  380000       379998    99.972083    1.2449348     27620934 0.00096448679    195.67518    1685.3661   -4.1210654    2.2209123    197.57533            0 
  380500       380498    100.04106    1.2556632     27680047 0.00096242704    194.22626     1684.945   -4.9798833    2.1481078    197.05804            0 
  381000       380998    99.995775    1.2086333     27708592 0.00096143558    196.33515    1686.3791   -3.8111487    2.2763422    197.86996            0 
  381500       381498    100.00582    1.0684726     27687594 0.00096216472    196.44165    1686.6353   -3.7423038    2.4135954    197.77035            0 
  382000       381998    100.00513   0.90706846     27640708 0.00096379681    196.06727    1686.2507   -4.2168033    2.5051461    197.77892            0 
  382500       382498    99.977428   0.79969336     27616712 0.00096463424    196.81817    1686.5888   -3.9429983    2.5281571    198.23301            0 
  383000       382998    99.985187   0.68624786     27652231 0.00096339516    196.71104    1686.5973   -3.2971093    2.6995432    197.30861            0 
  383500       383498    99.974593   0.66148906     27696658 0.00096184983    197.47622    1687.2046   -3.1924403    2.7419585     197.9267            0 
  384000       383998    99.997346   0.73280409     27725925 0.00096083452    194.56897    1684.6364   -5.1917352    2.8217072      196.939            0 
  384500       384498    99.953132   0.89211436     27780008 0.00095896394    196.41534    1685.8239   -4.5621962    2.5022672    198.47527            0 
  385000       384998    99.940343    1.0164082     27818551 0.00095763527    196.85704     1686.075    -4.234027    2.4554954    198.63557            0 
  385500       385498      99.9729     1.117577     27872893 0.00095576822    196.28295    1685.9861   -3.8866194    2.2421869    197.92738            0 
  386000       385998    100.02528    1.2324635     27881550 0.00095547148    195.01951    1685.5032   -5.0380026    2.1880534    197.86946            0 
  386500       386498    100.05322     1.297663     27852527 0.0009564671    194.40913    1685.3091   -5.7491578    2.2152639    197.94302            0 
  387000       386998    100.06337    1.2628907     27835454 0.00095705378    194.59389    1685.6452   -4.6808381    2.2027974    197.07193            0 
  387500       387498    100.00869    1.1930031     27832887 0.00095714204    195.89959     1686.136   -4.3832155    2.2463505    198.03645            0 
  388000       387998    99.973239    1.1034816     27809631 0.00095794244     197.0882    1686.7964   -3.7175267    2.3180834    198.48765            0 
  388500       388498    100.05316   0.94130125     27805619 0.00095808067    195.69811    1686.5972   -3.2795119    2.4528552    196.52476            0 
  389000       388998    100.06924   0.86763551     27807127 0.00095802871    195.79383    1686.9325   -3.8714336    2.5882039    197.07706            0 
  389500       389498    99.978265   0.77738599     27826826 0.00095735052     196.2079     1685.991   -4.9719087    2.5242675    198.65554            0 
  390000       389998    100.00882   0.75899297     27850375 0.00095654101    196.14151    1686.3799   -4.5077577    2.4955599    198.15371            0 
  390500       390498    100.00676    0.8139442     27858210  0.000956272    194.68185    1684.8895   -5.5869615    2.6484523    197.62036            0 
  391000       390998    100.04017   0.87258377     27871679 0.00095580987      195.581    1686.2866   -4.1716222    2.4942122    197.25841            0 
  391500       391498    100.02517   0.98770078     27835601 0.00095704871    195.70609    1686.1881   -4.4068564    2.3421512     197.7708            0 
  392000       391998    99.851535    1.1109111     27837324 0.00095698946    195.90438     1683.799   -6.1096501    2.4880058    199.52603            0 
  392500       392498    99.946306    1.1607151     27881062 0.0009554882    195.19389    1684.5007   -5.3805168    2.2191859    198.35522            0 
  393000       392998    100.03733    1.1877656     27921512 0.00095410398    194.61567    1685.2788   -5.3796806    2.1083445      197.887            0 
  393500       393498    100.03006    1.1952875     27935074 0.00095364079      194.681    1685.2359   -5.4401162    2.2924168    197.82869            0 
  394000       393998     99.96756    1.1619887     27930661 0.00095379146    196.56497    1686.1885   -4.5116883    2.3000685    198.77659            0 
  394500       394498    100.05397    1.0883514     27912838 0.00095440047     194.5936    1685.5047   -4.8067489     2.246812    197.15354            0 
  395000       394998    99.939084   0.96838276     27927149 0.00095391139    197.59543    1686.7947    -3.811789    2.4728873    198.93433            0 
  395500       395498    99.985453   0.84775931     27920002 0.00095415559    195.46846    1685.3586   -5.8035571     2.599686    198.67233            0 
  396000       395998    100.02095   0.75812969     27942832 0.00095337601    196.54833    1686.9675   -3.2360725    2.6335111    197.15089            0 
  396500       396498    100.00886   0.76935788     27952632 0.00095304178    197.63119    1687.8702    -3.112908    2.6800574    198.06404            0 
  397000       396998    99.939179    0.8137608     27959841 0.00095279604     196.8911    1686.0917   -4.7040682    2.5965376    198.99863            0 
  397500       397498    100.01144   0.83603745     27996787 0.00095153867    195.33159     1685.609   -5.5232192    2.6551057     198.1997            0 
  398000       397998     100.0508   0.90001551     28018449 0.00095080302    195.71922    1686.5832    -4.119101    2.4634316    197.37489            0 
  398500       398498    100.05863   0.97012202     28008125 0.0009511535    195.76747    1686.7481    -3.936097    2.3959447    197.30762            0 
  399000       398998    99.986756    1.0640966     27996521 0.00095154772    197.01723    1686.9268   -3.8540624    2.4862233    198.38507            0 
  399500       399498    99.947159    1.1335081     28000695 0.0009514059    197.70974    1687.0293   -3.6015502     2.365317    198.94597            0 
  400000       399998    99.943128    1.1976572     27994550 0.00095161473    197.42534    1686.6848   -3.5855614    2.2508916    198.76001            0 
  400500       400498    99.949035    1.1951129     28002266 0.0009513525    197.29527    1686.6428   -3.4865385    2.3545543    198.42725            0 
  401000       400998     100.0229    1.1331088     28020843 0.00095072177    195.10131    1685.5495   -5.3563282    2.3629202    198.09472            0 
  401500       401498    100.02202    1.0219388     28029146 0.00095044015    195.65599    1686.0911   -4.7455225    2.4667278    197.93478            0 
  402000       401998    99.983354   0.90952596     27997871 0.00095150184     195.7572    1685.6161   -5.2227533    2.7303344    198.24961            0 
  402500       402498    99.945128   0.80408028     28000897 0.00095139902    195.68298    1684.9723    -5.900263    2.5863172    198.99692            0 
  403000       402998    99.940279    0.7086231     28035301 0.00095023149    196.94262    1686.1597    -4.454935    2.6001483    198.79741            0 
  403500       403498    99.947318   0.70364685     28044325 0.00094992573    198.01972    1687.3417   -3.3396757    2.8514678    198.50793            0 
  404000       403998    100.05826   0.76049904     28044460 0.00094992117    196.58158    1687.5567   -3.9673903    2.6211597    197.92781            0 
  404500       404498    100.06109   0.86313931     28081362 0.00094867285    195.89454    1686.9118   -4.3632838    2.5862211    197.67161            0 
  405000       404998    99.971438    1.0107147     28106312 0.00094783073    197.28679    1686.9681   -3.9783691    2.5113486    198.75381            0 
  405500       405498     99.99472    1.0955269     28112938 0.00094760733    197.39132    1687.4196   -3.4167447    2.4046614     198.4034            0 
  406000       405998    99.993708    1.1404852     28108235 0.00094776588    196.96315    1686.9763   -3.4238697    2.3715384    198.01548            0 
  406500       406498    100.00479    1.1828214     28091918 0.00094831636     196.7212    1686.8995   -4.5717187     2.341826    198.95109            0 
  407000       406998     100.0089    1.1763317     28076345 0.00094884236    196.48153    1686.7211   -4.1471415    2.2687661     198.3599            0 
  407500       407498    100.07388    1.1241266     28069012 0.00094909027    196.78875    1687.9966   -3.3888737    2.3945675    197.78305            0 
  408000       407998     99.97624    1.0683358     28073307 0.00094894504    197.11471    1686.8676   -3.9252776    2.5882609    198.45173            0 
  408500       408498    99.949495   0.99167186     28084662 0.00094856139    197.02038    1686.3747   -3.7860416    2.5238731    198.28255            0 
  409000       408998    99.876863   0.87692987     28148418 0.0009464129    196.67001    1684.9421   -5.3860373    2.6004197    199.45563            0 
  409500       409498    99.987212   0.79920512     28184919 0.00094518724    197.16167    1687.0781   -4.1024527    2.6576501    198.60647            0 
  410000       409998    100.02031   0.70283195     28207011 0.00094444696    196.20268    1686.6122   -4.4860563     2.710071    197.97866            0 
  410500       410498     99.94435   0.75299302     28225536 0.00094382709    197.89471    1687.1724   -3.2702426    2.6815023    198.48345            0 
  411000       410998    100.05022   0.77839006     28216445 0.00094413118    195.80507    1686.6604   -4.3202778    2.7686009    197.35675            0 
  411500       411498    100.02728   0.83013779     28209255 0.00094437184    195.80078    1686.3142    -5.021896    2.7537969    198.06888            0 
  412000       411998    99.937452   0.97259536     28201162 0.00094464284    197.18615    1686.3611   -4.3614693    2.5433144     199.0043            0 
  412500       412498    99.974622    1.0157698     28204481 0.00094453168    197.69593    1687.4247   -3.7931903    2.4576149     199.0315            0 
  413000       412998    99.939606    1.0583944     28207824 0.00094441973    197.86506    1687.0721   -4.3441687    2.4481894    199.76104            0 
  413500       413498     100.0234     1.037695     28261921 0.00094261201    195.93819    1686.3938   -4.2414895    2.3734782     197.8062            0 
  414000       413998    99.968217    1.1259581     28342391 0.00093993573    196.93009    1686.5634   -3.6307305    2.2884806    198.27234            0 
  414500       414498    99.980485    1.1201196     28367228 0.00093911278    196.09581     1685.912   -4.7904251    2.4370005    198.44923            0 
  415000       414998    100.03916     1.075135     28387190 0.00093845236    196.20561    1686.8961   -4.7360846    2.3208427    198.62085            0 
  415500       415498    100.00108    1.0549614     28428217 0.00093709803    197.46265    1687.5856   -3.5039402    2.3773231    198.58926            0 
  416000       415998     99.93573     1.008495     28481429 0.00093534724    198.44224    1687.5915   -2.8716304    2.5304628    198.78341            0 
  416500       416498    99.989101   0.97959831     28498777 0.00093477788    198.15079    1688.0953   -3.2263717    2.5647488    198.81242            0 
  417000       416998    100.09144   0.90909909     28479541 0.00093540923    196.51059    1687.9801   -3.5372966    2.5341242    197.51376            0 
  417500       417498    99.892942   0.94861721     28468708 0.0009357652     199.5808    1688.0925   -2.0369426    2.5643464    199.05339            0 
  418000       417998    99.967901   0.92116398     28473104 0.00093562071    198.91636     1688.545   -2.3614841    2.5144778    198.76337            0 
  418500       418498    99.890308   0.99343493     28485319 0.00093521951    199.12546    1687.5979   -2.7502516     2.519125    199.35659            0 
  419000       418998     99.96862   0.95551419     28500754 0.00093471302    198.44953    1688.0889   -2.9955123    2.4903602    198.95468            0 
  419500       419498    100.08566   0.95731175     28493090 0.00093496444    196.48397    1687.8674   -3.6826398    2.5849288    197.58168            0 
  420000       419998    99.996401    0.9649365     28483324  0.000935285    195.95818    1686.0115    -5.276127    2.3685312    198.86577            0 
  420500       420498    99.852398   0.98753356     28477520 0.00093547564    198.88757    1686.7951   -2.9509901    2.4007144    199.43785            0 
  421000       420998    100.00435   0.93838235     28473798 0.00093559792    197.51421    1687.6859   -3.6690774    2.5808425    198.60244            0 
  421500       421498    99.948812   0.98431932     28490320 0.00093505533    197.65034    1686.9945   -3.9638133    2.4787019    199.13545            0 
  422000       421998     99.96791    1.0229424     28527872 0.00093382451    198.49981    1688.1286   -2.8734569     2.427463    198.94581            0 
  422500       422498    100.11372    1.0462813     28545299 0.00093325439    193.45321    1685.2547   -7.4481765    2.5257506    198.37563            0 
  423000       422998    100.00596   0.97129905     28591942 0.00093173194    195.80663    1686.0023   -5.4543995    2.6854786    198.57555            0 
  423500       423498    99.993224   0.97208352     28573999 0.00093231703    195.65846    1685.6644   -5.7179572    2.4159496    198.96047            0 
  424000       423998    100.01687   0.96438852     28544186 0.0009332908    197.26391    1687.6222   -4.1292329    2.5318446     198.8613            0 
  424500       424498    99.960364   0.95289766     28516626 0.00093419277    198.50158    1688.0179   -3.1557756    2.6338981    199.02345            0 
  425000       424998    100.00706   0.97777631     28483142 0.00093529098    198.33559    1688.5477   -3.0103607    2.5157209    198.83023            0 
  425500       425498     100.0341    1.0269645     28452886 0.00093628554    195.48545    1686.1006   -5.1325358    2.4740632    198.14392            0 
  426000       425998    99.975714   0.99394923     28507893 0.00093447896    197.25665    1687.0017    -4.016652    2.4581691    198.81513            0 
  426500       426498    99.974196   0.93397359     28549241 0.00093312554       197.95    1687.6724   -3.9360795    2.5673705    199.31871            0 
  427000       426998    100.05665   0.85835191     28560316 0.00093276369    196.92885    1687.8799   -3.4870128    2.6706852    197.74517            0 
  427500       427498    99.954641   0.88650657     28534234 0.00093361629    196.67057    1686.1016   -4.2301476    2.6728243     198.2279            0 
  428000       427998    99.939936   0.93327566     28520614 0.00093406215    197.66642    1686.8783   -4.9682014    2.5524873    200.08213            0 
  428500       428498    100.03095   0.91728222     28482874 0.0009352998    195.93685    1686.5049    -5.129666    2.5018743    198.56464            0 
  429000       428998    99.981182   0.95553596     28445776 0.00093651958    198.39184    1688.2184   -2.9593358      2.53139    198.81979            0 
  429500       429498    100.08158   0.97014862     28398694 0.00093807221    195.80986    1687.1325   -4.8135005    2.5303578    198.09301            0 
  430000       429998    99.935338    1.0479323     28371803 0.00093896132     198.7283    1687.8717   -2.9521483    2.5201872    199.16026            0 
  430500       430498    99.960849    1.0676145     28376805 0.00093879583     199.0778    1688.6014   -2.7867593    2.3934067    199.47116            0 
  431000       430998     99.99649   0.99759255     28407064 0.00093779582     197.5871    1687.6417   -3.0746635    2.5879193    198.07384            0 
  431500       431498    99.810873    1.0692857     28439368 0.00093673059    199.58876    1686.8775   -2.3888587     2.512542    199.46507            0 
  432000       431998    99.966762   0.97311465     28517058 0.00093417861    198.32273    1687.9344   -3.4228135     2.682274    199.06327            0 
  432500       432498    100.04014   0.97004188     28557367   0.00093286    196.09014    1686.7952    -4.772209    2.3660233    198.49633            0 
  433000       432998    99.998611   0.99063175     28572721 0.00093235873    196.75779     1686.844   -4.6546941     2.461873    198.95061            0 
  433500       433498     100.0241    1.0285712     28588597 0.00093184096    197.44871    1687.9148    -3.644092    2.5372051     198.5556            0 
  434000       433998    100.00564     1.062094     28570649 0.00093242633    196.72538    1686.9164   -5.4146642    2.3221487     199.8179            0 
  434500       434498    99.992676     1.003301     28554340 0.00093295891    195.94264    1685.9405   -5.2643567    2.5908732    198.61613            0 
  435000       434998    100.04392     1.034593     28526099 0.00093388254    196.35565     1687.117   -4.6432692    2.5117826    198.48713            0 
  435500       435498    100.00351   0.98214716     28494874 0.00093490591    195.98915    1686.1484   -5.7405401    2.5570704    199.17261            0 
  436000       435998    99.939511   0.94041497     28457458 0.00093613511    197.98879    1687.1944   -4.3709157    2.6292599    199.73044            0 
  436500       436498    100.05906   0.86669418     28423145 0.00093726525    195.27274    1686.2598   -5.6663285     2.578569     198.3605            0 
  437000       436998    100.00401   0.87290891     28449784 0.00093638762    196.11015    1686.2768   -5.1259185    2.5584265    198.67764            0 
  437500       437498    100.01635   0.88132998     28503081 0.00093463672    197.79183    1688.1424   -3.0021272    2.8096882    197.98427            0 
  438000       437998    100.06191    0.9261529     28554739 0.00093294586    195.34486    1686.3743   -5.7820635    2.6228162    198.50411            0 
  438500       438498    99.937029   0.98984446     28636239 0.00093029066    196.96744     1686.136   -5.3582172     2.467148    199.85851            0 
  439000       438998    99.974122    1.0584562     28664310 0.00092937962    195.69671     1685.418   -6.4472769    2.4106045    199.73338            0 
  439500       439498    100.00675    1.0806403     28680027 0.00092887031    196.92607    1687.1336   -4.2381154    2.4204962    198.74369            0 
  440000       439998    100.13669     1.091039     28661186 0.00092948093    196.09172    1688.2355   -3.8959981    2.5004252    197.48729            0 
  440500       440498    99.968802    1.1211748     28663394 0.00092940932    197.63085    1687.2729   -4.2369531     2.388209     199.4796            0 
  441000       440998    99.944201    1.1029046     28653616 0.0009297265    199.02406    1688.2995   -3.4585375     2.358003     200.1246            0 
  441500       441498    100.02466    1.0430896     28606698 0.00093125133    197.65967    1688.1341   -3.6468585    2.4439338     198.8626            0 
  442000       441998    99.983841    1.0002105     28545304 0.00093325424    198.66026    1688.5264   -3.2006603    2.5079859    199.35293            0 
  442500       442498    100.02513   0.97060351     28512540 0.00093432665    198.20473    1688.6862    -2.728257    2.5120678    198.42092            0 
  443000       442998    100.02375   0.92543184     28519181 0.00093410906    198.22005    1688.6808   -3.3392181    2.6934302    198.86584            0 
  443500       443498    99.964509   0.89410439     28580670 0.00093209942     199.7261    1689.3042   -2.3788281    2.5712707    199.53365            0 
  444000       443998    99.932299   0.86972767     28616668 0.00093092689      199.236    1688.3341   -2.4278364    2.5999513    199.06389            0 
  444500       444498    99.991067   0.78436727     28662139 0.00092945003    198.24292    1688.2168   -3.7165375    2.7389053    199.22055            0 
  445000       444998    99.983216   0.79251727     28675754 0.00092900872    198.63257    1688.4894   -3.2021288    2.6102196    199.22448            0 
  445500       445498    99.972211    0.8982707     28663202 0.00092941555    198.13889    1687.8317   -3.7467518    2.5680746    199.31757            0 
  446000       445998    100.01059   0.93638173     28666674  0.000929303    197.49349    1687.7582   -4.3754695    2.5477575     199.3212            0 
  446500       446498    100.05392    1.0190585     28684360 0.00092872999    197.55762    1688.4681   -2.9802805    2.4085412    198.12936            0 
  447000       446998    100.01174    1.1155701     28682011 0.00092880608    198.05346    1688.3354   -3.9956751     2.407945    199.64119            0 
  447500       447498    100.06788    1.1629264     28681640 0.0009288181    197.33641    1688.4549   -3.7213038    2.4693188     198.5884            0 
  448000       447998      99.9869    1.1746719     28685165 0.00092870396     198.8608    1688.7725   -3.0642556    2.4949602    199.43009            0 
  448500       448498    99.962087    1.1500777     28676312 0.00092899065    199.42174    1688.9637   -2.8826965    2.3296946    199.97474            0 
  449000       448998    99.966438     1.052076     28688847 0.00092858476    198.87292    1688.4797   -2.6915663    2.5712824     198.9932            0 
  449500       449498    99.995442   0.91218421     28723729 0.00092745709    198.69267    1688.7317   -2.9131877    2.6808957    198.92496            0 
  450000       449998    99.939371   0.81512498     28770922 0.00092593579    200.21415    1689.4177   -2.2934187    2.6808774     199.8267            0 
  450500       450498    99.994825    0.7411344     28805939 0.00092481018    198.83265    1688.8625   -3.3002362     2.782622    199.35026            0 
  451000       450998     100.0197   0.73645497     28847908 0.00092346473    198.52852     1688.929   -3.2063068    2.8463943    198.88844            0 
  451500       451498    99.994579   0.81878317     28897358 0.00092188449    199.78673    1689.8129   -1.9846917    2.8069769    198.96444            0 
  452000       451998    99.968812   0.88583923     28934564 0.00092069906    199.45357    1689.0958   -2.7372524    2.7638366    199.42699            0 
  452500       452498    99.956313   0.92885889     28950575 0.00092018986    199.89001     1689.346   -2.8673263    2.7960788    199.96126            0 
  453000       452998    99.961928   0.99084283     28946617 0.0009203157    200.31536     1689.855   -1.9855366    2.4693426    199.83156            0 
  453500       453498    99.964871    1.0680744     28915932 0.00092129231    198.84926    1688.4327   -3.5077778    2.4860778    199.87096            0 
  454000       453998     100.0473    1.0683136     28914496 0.00092133806    198.84856    1689.6604   -2.6395304    2.5952547    198.89283            0 
  454500       454498    100.06329    1.0959068     28894612 0.00092197209    197.73615    1688.7862   -3.6526998    2.4469427    198.94191            0 
  455000       454998    100.00795    1.1596814     28894486 0.00092197613    197.86668     1688.092    -3.913516    2.4777313    199.30247            0 
  455500       455498    99.979692    1.0620577     28909115 0.00092150957    198.92599    1688.7303   -2.7208438    2.5233657    199.12347            0 
  456000       455998    99.989712    1.0075978     28902996 0.00092170465     199.3924     1689.346   -3.0103105    2.4924903    199.91022            0 
  456500       456498    99.933142   0.96981554     28892290 0.00092204617    197.30807    1686.4188   -5.1330947    2.6974974    199.74367            0 
  457000       456998    99.951568   0.92261449     28894341 0.00092198074    198.40428    1687.7895   -3.8915333    2.5394489    199.75637            0 
  457500       457498    99.879215   0.93752819     28905589 0.00092162196    199.82879    1688.1359    -3.135347    2.5387649    200.42537            0 
  458000       457998     100.0177   0.91751997     28910706 0.00092145885    198.76909    1689.1397   -2.5181006    2.6475931     198.6396            0 
  458500       458498    100.05381   0.91877332     28889680 0.00092212949    197.80573    1688.7146   -3.7678449    2.5882245    198.98535            0 
  459000       458998    99.962231   0.99515364     28887087 0.00092221228    198.25511    1687.7993   -3.0002996    2.5308887    198.72452            0 
  459500       459498     100.0009    1.0119597     28908134 0.00092154084    198.32375    1688.4441   -3.6044208    2.4824113    199.44576            0 
  460000       459998    99.967356    1.0204879     28940466 0.00092051129    199.19904    1688.8195   -3.3100446    2.5960569    199.91303            0 
  460500       460498    100.01841    1.0086149     28918459 0.00092121181    197.89772     1688.279   -4.2730001     2.518658    199.65206            0 
  461000       460998    100.00319   0.96836924     28921832 0.00092110436    197.00246    1687.1569   -4.9871576    2.3909847    199.59863            0 
  461500       461498    99.957582   0.95298165     28923755 0.00092104315    195.79741    1685.2723   -6.1551054    2.6009554    199.35156            0 
  462000       461998    100.14145   0.91508272     28919431 0.00092118086     194.4746    1686.6893   -6.4030489    2.6445299    198.23311            0 
  462500       462498    99.976738   0.97133458     28914817 0.00092132783    197.73157    1687.4919   -4.4766203    2.4890061    199.71918            0 
  463000       462998    99.985052    1.0570206     28886642 0.00092222648     195.9816    1685.8658   -6.6254436    2.6442223    199.96282            0 
  463500       463498    100.02711    1.0645693     28889875 0.00092212327    196.33164    1686.8425   -5.2206189    2.5549534     198.9973            0 
  464000       463998    100.03573    1.0690558     28861056 0.00092304405    196.34657     1686.986   -5.2487167    2.4367523    199.15853            0 
  464500       464498    100.00296    1.0543012     28851273 0.00092335704    197.01076    1687.1618    -5.441659    2.4864972    199.96592            0 
  465000       464998    99.971596    1.0422688     28862152  0.000923009     198.5318    1688.2155   -4.1263557    2.5337135    200.12444            0 
  465500       465498    100.04173   0.99461682     28879504 0.00092245441    197.69142    1688.4202   -3.3817354    2.6031834    198.46997            0 
  466000       465998    100.02454    1.0292114     28905104 0.00092163744    197.81749    1688.2901   -3.6291691    2.5249818    198.92167            0 
  466500       466498    99.951437   0.99435122     28948910 0.00092024281    199.36032    1688.7436   -3.5420611    2.5371603    200.36522            0 
  467000       466998    99.931251   0.97012432     28985545 0.00091907969    200.18612    1689.2686   -2.7253895    2.5978508    200.31366            0 
  467500       467498    100.00505   0.93223306     28996290 0.00091873912    199.21688    1689.3991   -3.0861782     2.583926    199.71913            0 
  468000       467998    100.06909   0.98837703     28993579 0.00091882501    197.65841    1688.7949   -3.8984335    2.5368892    199.01995            0 
  468500       468498    100.03545    1.0108777     29003969 0.00091849588    197.54236    1688.1776    -4.466135    2.5064067    199.50209            0 
  469000       468998    99.975533    1.0484763     29003097 0.00091852349    198.91643    1688.6588   -3.8558225    2.4359395    200.33631            0 
  469500       469498    99.991278    1.0119608     28983051 0.00091915877    199.68884    1689.6658   -1.7776457    2.4946495    198.97184            0 
  470000       469998    100.05995    1.0304686     28984012 0.00091912829    198.35547    1689.3557   -3.2382394    2.4265899    199.16712            0 
  470500       470498    99.970833    1.0068944     29023386 0.0009178814    198.24031    1687.9126   -4.5818048    2.5466331    200.27548            0 
  471000       470998    99.954109    1.0113371     29106217 0.00091526926     198.6342    1688.0573    -4.087576    2.5882158    200.13356            0 
  471500       471498    99.958359   0.98217617     29192123 0.00091257582    200.05987    1689.5463   -3.0733982    2.5198597    200.61341            0 
  472000       471998    99.989245   0.93078508     29226079 0.00091151556    199.10255    1689.0492   -3.1667886    2.6950615    199.57428            0 
  472500       472498    100.06642   0.87371583     29233194 0.00091129372    197.97072    1689.0674     -3.81883    2.6677713    199.12178            0 
  473000       472998    99.985383    0.8885963     29237885 0.0009111475    199.79052    1689.6797   -2.6950754    2.6195579    199.86604            0 
  473500       473498     100.0692   0.93139004     29242426  0.000911006    198.92159    1690.0597    -3.367653    2.5052416    199.78401            0 
  474000       473998    99.974451     1.036333     29280604 0.00090981818    199.03673     1688.763   -4.3521856    2.5316104    200.85731            0 
  474500       474498    99.997935    1.0855389     29312284 0.00090883487    199.76296    1689.8391   -2.6470334     2.582909    199.82708            0 
  475000       474998     100.0764    1.1372086     29294794 0.00090937746     199.5162    1690.7615   -2.1468004    2.3852387    199.27776            0 
  475500       475498    100.01142    1.1799575     29259053 0.0009104883    199.46048    1689.7376     -2.98731    2.4108291    200.03696            0 
  476000       475998     99.99536    1.1584877     29264669 0.0009103136    199.34325    1689.3811   -3.0272221    2.3748819    199.99559            0 
  476500       476498    100.03627    1.1252369     29296717 0.00090931777     199.6878    1690.3353   -2.5979015     2.446649    199.83906            0 
  477000       476998    100.03224    1.0779542     29304799 0.00090906702    198.40087    1688.9882   -4.2398746    2.6536218    199.98713            0 
  477500       477498    99.989434      1.00191     29297546 0.00090929206    198.77881    1688.7283   -4.5916361    2.6216203    200.74883            0 
  478000       477998    100.00256   0.92369435     29283483 0.00090972874    197.96655    1688.1117   -4.7063556    2.4956912    200.17721            0 
  478500       478498    99.974389   0.86289277     29338595 0.00090801983    200.13562    1689.8609   -2.5803824    2.7094906    200.00651            0 
  479000       478998    100.04897   0.84542137     29380038 0.00090673899    198.88796    1689.7246    -3.121693    2.6946874    199.31496            0 
  479500       479498    99.937716   0.95179389     29435824 0.00090502056    199.97894    1689.1578   -2.3017273    2.5751699    199.70549            0 
  480000       479998    100.01024   0.97231386     29486657 0.00090346037    198.24294    1688.5025    -4.778739    2.6742594    200.34742            0 
  480500       480498    99.998927   0.99323895     29525975 0.0009022573    198.99041    1689.0814   -4.0896131    2.5655143     200.5145            0 
  481000       480998    100.03086    1.0226295     29539997 0.00090182899    198.50507    1689.0718   -3.8450891    2.6184555    199.73171            0 
  481500       481498     99.98375    1.0640184     29550107 0.00090152046    199.42913    1689.2939   -4.0083285    2.6230703    200.81438            0 
  482000       481998    99.940423    1.0414875     29536354 0.00090194023    199.36758    1688.5868   -4.4362138    2.5924385    201.21136            0 
  482500       482498    100.11119   0.98013563     29489438 0.00090337518    196.36264    1688.1264   -4.7139668    2.4937654    198.58284            0 
  483000       482998    100.03557   0.97613869     29448270 0.00090463805    198.34308    1688.9801   -3.9136963    2.5591423    199.69764            0 
  483500       483498    99.971214    0.9721727     29441634 0.00090484195    198.65384    1688.3318   -4.9096879    2.5910337     200.9725            0 
  484000       483998    100.09074   0.90713839     29463831 0.00090416029    197.14849    1688.6075    -4.232663    2.5976128    198.78354            0 
  484500       484498    99.928692   0.97854275     29505184 0.00090289307    199.85656    1688.9009   -3.9916434    2.6975112    201.15069            0 
  485000       484998    100.00665   0.89450923     29550365 0.0009015126    198.90968    1689.1157   -3.7483945    2.7899865    199.86809            0 
  485500       485498    100.02563   0.92194294     29562170 0.00090115258    199.02743    1689.5162   -3.0705835    2.5035582    199.59446            0 
  486000       485998    100.01267   0.87391215     29552853 0.0009014367    199.15314    1689.4488   -3.7519268    2.6108817    200.29419            0 
  486500       486498    99.938335   0.94988499     29509639 0.00090275675    199.93274    1689.1208   -3.5619665    2.7407796    200.75392            0 
  487000       486998    100.01537    1.0111585     29496844 0.00090314836    199.34485    1689.6809   -3.2004921    2.5937869    199.95155            0 
  487500       487498    99.961858    1.1021529     29498068 0.00090311087    199.78665    1689.3252   -3.1781582    2.5638018    200.40101            0 
  488000       487998    100.01521    1.1118914     29508404 0.00090279455    199.10426    1689.4379   -3.8588878    2.5917863    200.37136            0 
  488500       488498    100.00153    1.1176369     29509819 0.00090275125    199.62911    1689.7589   -3.0960793    2.6029585    200.12223            0 
  489000       488998    100.09268    1.0708329     29498591 0.00090309486     198.3356    1689.8236   -3.8715455    2.4690843    199.73806            0 
  489500       489498    99.950751    1.0643832     29540351 0.00090181819    198.98753    1688.3606    -3.631678    2.5365446    200.08267            0 
  490000       489998    99.959609    1.0398112     29588773 0.00090034236    201.69176    1691.1968   -1.8955795    2.5553907    201.03195            0 
  490500       490498    100.05508   0.92835358     29615342 0.00089953464    199.76385    1690.6916   -2.2658512    2.6612706    199.36843            0 
  491000       490998    100.01749   0.89221528     29623077 0.00089929974    200.28287    1690.6505   -2.3522572    2.8436843    199.79144            0 
  491500       491498    99.929569   0.90863358     29618113 0.00089945047    201.16096    1690.2184   -2.8682204    2.6972722    201.33191            0 
  492000       491998    99.952948   0.83500663     29640403 0.00089877409    199.79587    1689.2017   -3.4863539    2.6990235     200.5832            0 
  492500       492498    100.03564   0.84542112     29653448 0.00089837871    199.80579    1690.4438   -2.9962666    2.7932597     200.0088            0 
  493000       492998    99.969485   0.92609374     29649498 0.00089849838    199.00026    1688.6525   -4.4256874    2.7819732    200.64398            0 
  493500       493498    100.02104   0.98473795     29651080 0.00089845046    198.92624    1689.3467   -3.6711826     2.701747    199.89568            0 
  494000       493998    100.07767    1.0104317     29648424 0.00089853091    198.13514    1689.3995   -3.9499582    2.5588595    199.52624            0 
  494500       494498     100.0373    1.0606045     29632381 0.00089901738    198.90556    1689.5684   -3.6277193    2.6447851     199.8885            0 
  495000       494998    99.956185    1.1336856     29633346 0.00089898811    199.83865    1689.2927    -4.268629    2.4959885    201.61129            0 
  495500       495498    100.00891    1.0964137     29648211 0.00089853738    199.16654    1689.4063   -3.7566202    2.4743283    200.44883            0 
  496000       495998    100.02929    1.0661042     29678308 0.00089762617    199.22845    1689.7718    -3.683858    2.4711925    200.44112            0 
  496500       496498    99.935848    1.0381176     29710964 0.00089663958    199.62674    1688.7778   -3.0047842    2.6939168    199.93761            0 
  497000       496998    99.901657   0.97431062     29759086 0.00089518966    200.83039    1689.4719   -2.7015315      2.85721    200.67471            0 
  497500       497498    99.894532   0.93036733     29796752 0.00089405804    200.56976    1689.1051   -2.7693603    2.5625629    200.77656            0 
  498000       497998    100.00851   0.81420079     29848216 0.00089251653    199.23431     1689.468   -3.6759492    2.7858697    200.12439            0 
  498500       498498    99.985116   0.84237581     29849043 0.00089249178    199.21614    1689.1013   -3.9871254    2.8194047    200.38386            0 
  499000       498998    99.907098   0.87742264     29851285 0.00089242476    200.54617    1689.2688   -3.2388473    2.5153048    201.26972            0 
  499500       499498    100.00376   0.94026552     29830251 0.00089305402    200.34119    1690.5042   -3.1508626    2.5488994    200.94316            0 
  500000       499998     99.89777    1.0751855     29814681 0.00089352041    200.89831    1689.4819   -3.1104528    2.6723917    201.33637            0 
  500500       500498    100.08609    1.1587679     29852741 0.00089238122     198.0715    1689.4613    -3.745229    2.5603794    199.25635            0 
  501000       500998    100.03858    1.2261771     29895985 0.00089109042    197.57376    1688.2556    -4.852135    2.3708242    200.05507            0 
  501500       501498    99.994988     1.222262     29925013 0.00089022603    199.07428    1689.1065   -3.9101094    2.1657881     200.8186            0 
  502000       501998    99.984564    1.1938029     29950745 0.00088946121    200.82348    1690.7004    -3.461116    2.5016844    201.78291            0 
  502500       502498    99.980542     1.079018     29956683 0.00088928489    199.43706    1689.2541   -4.2788555    2.5372457    201.17867            0 
  503000       502998    99.943238    1.0136011     29926322 0.00089018711    199.16939    1688.4305   -3.5757104    2.5654215    200.17968            0 
  503500       503498    100.01887   0.92759357     29934704 0.00088993784    198.71013    1689.0982   -3.7499438    2.6402284    199.81984            0 
  504000       503998    100.01398   0.87274196     29905187 0.00089081623    200.45945    1690.7746   -2.7485444    2.5496653    200.65833            0 
  504500       504498    100.01187   0.89038125     29834223 0.00089293513    200.08885    1690.3726    -3.382522    2.6943008    200.77708            0 
  505000       504998    99.940522   0.96518604     29775257 0.00089470348    201.51788    1690.7385   -2.9555219    2.5968601    201.87654            0 
  505500       505498    100.05466    1.0180811     29718771 0.00089640403    197.57642    1688.4978   -5.1512299    2.5481244    200.17952            0 
  506000       505998    100.06796    1.0913735     29715644 0.00089649835    198.51336     1689.633   -4.0917494    2.5107322    200.09437            0 
  506500       506498    100.02412    1.0952161     29718859 0.00089640137    198.92006    1689.3863   -3.5014376    2.4808614    199.94063            0 
  507000       506998    100.02525    1.0733575     29737088 0.00089585186    197.81509    1688.2983   -5.1309963    2.6084243    200.33767            0 
  507500       507498    100.00893      0.99934     29760058 0.00089516041     198.6902    1688.9302   -4.7346215    2.6237573    200.80106            0 
  508000       507998     100.0392   0.98224493     29788663 0.00089430081    199.26189     1689.953   -3.8688491    2.4178521    200.71288            0 
  508500       508498    99.911287   0.99108422     29814176 0.00089353553    200.91662    1689.7016   -3.1131192    2.5063831    201.52336            0 
  509000       508998    99.977666     1.002929     29857813 0.00089222966    200.66821    1690.4424   -2.9765011    2.4372563    201.20746            0 
  509500       509498    100.03897   0.99775198     29921229 0.00089033864    199.46577    1690.1535   -3.1124521    2.5985221     199.9797            0 
  510000       509998    99.975589    1.0928509     29971989 0.00088883077      199.479    1689.2222   -4.0354231    2.6925927    200.82183            0 
  510500       510498    100.00057    1.0716033     30010333 0.00088769511    198.92939    1689.0448   -4.8220267    2.5797663    201.17165            0 
  511000       510998    99.952683   0.99212532     30026447 0.00088721871     199.6675    1689.0694   -4.2178372    2.6101675    201.27517            0 
  511500       511498    100.01105   0.91111674     30034192 0.00088698992     199.1519    1689.4234    -4.220043    2.6251245    200.74682            0 
  512000       511998    100.03699   0.89429873     30031344 0.00088707405    197.87061    1688.5288   -5.4892551    2.5214517    200.83841            0 
  512500       512498    100.00279   0.88927936     30054205 0.00088639928    198.77293    1688.9214   -4.6063615    2.7356895     200.6436            0 
  513000       512998    99.979875    0.9290004     30069856 0.00088593793    199.17632    1688.9834    -4.086713     2.640817    200.62221            0 
  513500       513498    100.04757   0.97205696     30067214 0.00088601576    198.73828    1689.5541   -4.3174429    2.6271309    200.42859            0 
  514000       513998    99.967926    1.0552924     30073467 0.00088583155    198.92878    1688.5578   -4.6375633    2.5348692    201.03147            0 
  514500       514498    99.951567    1.1355788     30072699 0.00088585417    199.71295    1689.0982   -4.0806593    2.4076559    201.38596            0 
  515000       514998    99.993119    1.1466484     30070946 0.00088590582    199.45159     1689.456   -3.9561695    2.4238767    200.98388            0 
  515500       515498    100.07399    1.1787626     30046098 0.00088663847    198.79537    1690.0049   -4.5262757    2.5131402    200.80851            0 
  516000       515998    100.02984    1.1293992     30080652 0.00088561997    199.69898    1690.2506   -3.2489027    2.4142513    200.53363            0 
  516500       516498    99.966383    1.0205493     30132298 0.00088410203    200.20529    1689.8113   -3.3803226    2.6782907    200.90732            0 
  517000       516998    100.02383   0.86884403     30189489 0.0008824272    199.81986    1690.2819   -3.6568527    2.7674999    200.70921            0 
  517500       517498    100.00991   0.78610195     30204212 0.00088199706    199.76426    1690.0189   -3.7497209    2.7287346    200.78525            0 
  518000       517998     100.0102   0.73500907     30228512 0.00088128802    200.25604     1690.515   -3.2566014    2.6966581    200.81599            0 
  518500       518498    99.848335   0.85829292     30253773 0.00088055219    201.62115    1689.4681     -2.96756    2.6013701    201.98734            0 
  519000       518998    99.949186   0.93874358     30288438 0.0008795444     199.8433    1689.1931   -4.3210544    2.7524011    201.41196            0 
  519500       519498    100.04043     1.034177     30333091 0.00087824963    198.82133    1689.5307   -4.4139743    2.6693968    200.56591            0 
  520000       519998    100.03838    1.1294297     30335299 0.00087818571    198.20933    1688.8882   -5.0668296    2.6037222    200.67243            0 
  520500       520498    100.00108    1.1241391     30303141 0.00087911764    197.76163    1687.8846   -5.7523574    2.6411164    200.87287            0 
  521000       520998    99.980555    1.1522976     30262017 0.00088031231    199.26402    1689.0812   -4.7194131    2.4915417    201.49189            0 
  521500       521498    99.986715     1.082706     30228531 0.00088128749    198.66874    1688.5777   -5.0750874     2.593499    201.15033            0 
  522000       521998    99.992329    1.0199002     30198744 0.00088215674    199.02142    1689.0141   -4.7550444    2.5579055    201.21856            0 
  522500       522498     100.0367   0.92315589     30187377 0.00088248892    197.87435    1688.5282   -5.1200474    2.5438471    200.45055            0 
  523000       522998    100.12973   0.86020993     30206112 0.00088194157    196.29249    1688.3326   -6.1092572    2.7230687    199.67868            0 
  523500       523498    99.928854    0.8978584     30248849 0.00088069554    199.96502    1689.0118   -4.8304911    2.7084367    202.08707            0 
  524000       523998    99.906314   0.87494062     30310886  0.000878893    201.27886    1689.9898   -3.5784613    2.7422186     202.1151            0 
  524500       524498    100.00318   0.91559989     30329778 0.00087834556    199.60397    1689.7582   -4.5083004    2.7346727    201.37759            0 
  525000       524998    100.09246   0.92736743     30343337 0.00087795307    197.40146    1688.8862   -5.4850209    2.8303973    200.05608            0 
  525500       525498    100.04455   0.98487714     30340953 0.00087802205     198.3619    1689.1326   -4.9488418    2.5758312    200.73491            0 
  526000       525998    100.07003   0.97192604     30321021 0.00087859924    197.35174    1688.5022   -5.8168595    2.5365347    200.63207            0 
  526500       526498    99.953511    1.0572708     30324885 0.00087848729    199.98568    1689.3999   -4.4408038     2.657843    201.76864            0 
  527000       526998    100.04628    1.0752549     30314997 0.00087877382    197.75403    1688.5506   -5.7620533    2.5636846    200.95239            0 
  527500       527498    99.899181    1.1129491     30327760 0.00087840401    199.36375    1687.9684   -4.6460578    2.4723268    201.53748            0 
  528000       527998    100.01768    1.1245471     30336312 0.00087815638    199.55278    1689.9232    -4.140093    2.6075979    201.08527            0 
  528500       528498    100.00638    1.0786599     30382073 0.00087683372    199.57312    1689.7751   -4.0402354    2.5961589     201.0172            0 
  529000       528998    100.00478    1.0240835     30421649 0.00087569302    199.52839    1689.7066     -4.53756    2.4892703    201.57668            0 
  529500       529498    99.995058   0.96616034     30463799 0.00087448141    200.32686    1690.3602    -3.309543    2.6405486    200.99586            0 
  530000       529998    100.04402   0.93789911     30481742 0.00087396664    200.99198    1691.7549   -2.4159682    2.5340421     200.8739            0 
  530500       530498    100.01874    0.9824381     30476265 0.0008741237    201.27377    1691.6599   -2.6526255    2.5532306    201.37316            0 
  531000       530998    100.00903    1.0497183     30453279 0.00087478351    200.68978    1690.9313   -3.5625391    2.5169867    201.73533            0 
  531500       531498    99.997935    1.0803235     30475120 0.00087415655    199.37291    1689.4491   -4.5698863    2.4101839    201.53261            0 
  532000       531998    100.06434    1.0831788     30491220 0.00087369498     198.9248    1689.9904   -4.5043425    2.5535678    200.87558            0 
  532500       532498    100.01568    1.0784638     30481121 0.00087398445    198.73759    1689.0782   -4.7062536    2.4911278    200.95272            0 
  533000       532998    100.02049    1.0688439     30482160 0.00087395466    198.99535    1689.4077   -5.0490558    2.5752355    201.46917            0 
  533500       533498    100.04026   0.98337978     30515931 0.00087298748     199.6465    1690.3534   -4.0529148    2.8186494    200.88076            0 
  534000       533998    99.932421   0.98047106     30539367 0.00087231757    201.74791    1690.8478   -2.8665238    2.7040227    201.91041            0 
  534500       534498    99.972422   0.96953819     30536928 0.00087238722    200.18982    1689.8858   -4.2772979    2.5855939    201.88153            0 
  535000       534998    100.01137   0.88751817     30543526 0.00087219877    200.02642    1690.3028   -3.9024219    2.7386763    201.19016            0 
  535500       535498    100.06455   0.87599856     30528057 0.00087264074    200.49351    1691.5623   -2.8240887    2.6622331    200.65537            0 
  536000       535998    100.02394   0.92900192     30504961 0.00087330143    200.08775    1690.5514   -4.2642118    2.5422856    201.80968            0 
  536500       536498    100.05114   0.97701215     30513065 0.00087306948    198.53529    1689.4043    -5.078905    2.6148134    200.99938            0 
  537000       536998    99.976656    1.0730061     30503170 0.0008733527    199.56333    1689.3224   -4.3248993    2.6544619    201.23376            0 
  537500       537498     99.96695    1.1339105     30492531 0.00087365742    200.65061    1690.2651   -3.4095492    2.4984727    201.56169            0 
  538000       537998    100.01207    1.2062591     30469837 0.00087430811    200.20103    1690.4878   -4.0050628    2.3472661    201.85882            0 
  538500       538498    99.938425    1.2577982     30424968 0.00087559751    201.02229    1690.2117   -3.4024469    2.5242554    201.90049            0 
  539000       538998    100.03388    1.2671033     30407603 0.00087609754    200.38493    1690.9967    -2.911747    2.4766482    200.82003            0 
  539500       539498    100.08644    1.1714092     30397910 0.0008763769    198.71682    1690.1118   -4.3323968    2.5265002    200.52272            0 
  540000       539998    100.00562    1.0477697     30409196 0.00087605164    200.18297    1690.3736   -4.3616355      2.52477    202.01983            0 
  540500       540498    99.963749   0.90408192     30444036 0.00087504908    200.62918    1690.1959   -4.0640398    2.6779896    202.01523            0 
  541000       540998    99.971518   0.78447466     30508711 0.00087319409     200.9161    1690.5986   -3.6816022      2.91603    201.68167            0 
  541500       541498    99.979034   0.74593075     30534582 0.00087245425    201.61764    1691.4122     -3.18914    2.9011205    201.90566            0 
  542000       541998    99.980049   0.72373092     30507795 0.00087322031    201.69993    1691.5096    -2.931135    2.9792559    201.65181            0 
  542500       542498     99.99912   0.77921661     30453164 0.0008747868    200.68263    1690.7765   -3.5286579    2.9917606    201.21953            0 
  543000       542998    100.02708   0.82692148     30442291 0.00087509924    200.96542    1691.4759   -3.2874797    2.8976858    201.35521            0 
  543500       543498    100.00309   0.91562636     30461895 0.00087453606    201.27838    1691.4313   -3.3739765    2.7921453    201.86021            0 
  544000       543998     99.96037   0.98785301     30481775 0.00087396569    201.74411    1691.2605   -3.1386029    2.7379024    202.14481            0 
  544500       544498    99.916953    1.0546761     30479673 0.00087402597    202.26592    1691.1354    -2.529573     2.584911    202.21059            0 
  545000       544998    100.06331    1.1191477     30471859 0.00087425012    200.12475    1691.1751   -3.6652836    2.5788394     201.2112            0 
  545500       545498     99.98384      1.19882     30463877 0.00087447918    202.39931    1692.2655   -2.6051075     2.466761    202.53765            0 
  546000       545998    99.984087    1.2136434     30455128 0.00087473038    201.99872    1691.8685   -3.0380487    2.4666433    202.57013            0 
  546500       546498    100.10208    1.1064996     30470854 0.00087427893    199.43161    1691.0597   -4.4780767    2.5790166    201.33067            0 
  547000       546998    100.04126    1.0071419     30515049 0.00087301273    201.33531     1692.057   -2.5859454    2.6248187    201.29644            0 
  547500       547498    99.953135   0.93835535     30522725 0.00087279317    201.61317    1691.0218   -3.6759179    2.6532816    202.63581            0 
  548000       547998    99.933546   0.89981931     30530774 0.00087256306    202.16817    1691.2849   -3.1606031    2.5832317    202.74555            0 
  548500       548498    100.02979   0.87131646     30511531 0.00087311338    201.10235    1691.6532   -3.9637774    2.7224936    202.34364            0 
  549000       548998    99.931818   0.94231644     30476234 0.00087412461     202.0271    1691.1181   -2.8947935    2.8621985     202.0597            0 
  549500       549498    100.03626    0.9205864     30446283 0.00087498452    201.12963    1691.7769   -3.2420362    2.8838282    201.48784            0 
  550000       549998    99.952241   0.93697825     30408324 0.00087607675    202.46567     1691.861   -3.1786036    2.8056375    202.83863            0 
  550500       550498     99.93003   0.90520422     30365121 0.00087732322    202.69625    1691.7606   -2.9697198    2.7665062    202.89946            0 
  551000       550998    99.996508   0.90899817     30336487 0.00087815132     200.9601     1691.015   -4.1826999    2.6980092    202.44479            0 
  551500       551498    100.02121   0.91437401     30363512 0.00087736972    200.38392    1690.8069   -4.4843979    2.7290196     202.1393            0 
  552000       551998    100.02255   0.96594996     30387760 0.00087666963    199.25258    1689.6956   -4.6391749    2.6313802    201.26038            0 
  552500       552498     99.95408    1.0076078     30392652 0.00087652852    200.12179    1689.5445    -5.300643    2.6289114    202.79352            0 
  553000       552998    99.942329    1.0702212     30390842 0.00087658071    202.50947    1691.7571   -2.9890912    2.5908013    202.90776            0 
  553500       553498    100.00082     1.123158     30364177 0.00087735049    200.71692    1690.8361    -3.568227    2.4780235    201.80712            0 
  554000       553998    100.05325    1.1051468     30376983 0.00087698065    200.83251     1691.733   -3.7324543     2.660097    201.90487            0 
  554500       554498    99.987903    1.0999001     30386554 0.0008767044    201.08552    1691.0122   -3.5479096    2.5860112    202.04742            0 
  555000       554998    99.973506    1.1097236     30369487 0.00087719711    201.85703    1691.5692   -3.9026815    2.5265418    203.23317            0 
  555500       555498    100.02293    1.0530112     30364422 0.00087734342    201.65109    1692.0998   -3.8132561    2.7174801    202.74686            0 
  556000       555998    100.08512   0.93856951     30375418 0.00087702582    199.35687    1690.7322   -4.8092835    2.6570452    201.50911            0 
  556500       556498    100.02027   0.93794843     30389411 0.00087662199    199.84603     1690.255   -4.7902342    2.6714201    201.96484            0 
  557000       556998    99.991231   0.91582506     30401255 0.00087628048    200.75841    1690.7347   -4.8069774    2.8056113    202.75978            0 
  557500       557498     99.98868   0.96676529     30409747 0.00087603576    201.64729    1691.5856   -3.3277744    2.7546737     202.2204            0 
  558000       557998    99.996336   0.96477402     30422851 0.00087565842    201.13127    1691.1836   -3.7834533    2.7320692    202.18265            0 
  558500       558498    100.03224   0.95522275     30431203 0.00087541811    200.19427    1690.7817   -5.1890551    2.8113454    202.57198            0 
  559000       558998    100.02094   0.96845622     30442749 0.00087508608    198.64363    1689.0626   -6.8903882    2.6260337    202.90798            0 
  559500       559498    99.923956   0.98416036     30460791 0.00087456778    199.60964    1688.5835   -5.7772228     2.569969    202.81689            0 
  560000       559998    100.04968    1.0092725     30479123 0.00087404174    201.14252    1691.9898   -3.8876547    2.6622961    202.36787            0 
  560500       560498       100.05   0.98970254     30500553 0.00087342763    199.98338    1690.8353   -4.5745172    2.7341175    201.82378            0 
  561000       560998    99.970106    1.0379813     30546543 0.00087211263    201.57696    1691.2384   -3.1265736    2.6863964    202.01713            0 
  561500       561498    99.975315    1.0581416     30567486 0.00087151512    201.03441    1690.7735   -3.9145865    2.5681077    202.38089            0 
  562000       561998    99.994719    1.0904936     30596100 0.00087070005    200.69302    1690.7213   -4.8111872    2.5898512    202.91436            0 
  562500       562498    100.04758    1.0724868     30624029 0.00086990598    199.80735    1690.6233   -5.1652899    2.5654887    202.40715            0 
  563000       562998    100.00526    1.0777912     30658903 0.00086891649    200.42866     1690.614    -4.555809    2.5136232    202.47085            0 
  563500       563498    99.958373    1.0475058     30651741 0.00086911952    201.92336      1691.41   -3.8279075    2.6120793    203.13919            0 
  564000       563998     100.0484   0.98291963     30621842 0.00086996812    200.57076    1691.3989   -4.4980033    2.7933034    202.27546            0 
  564500       564498     99.98811   0.90380196     30604780 0.0008704531    202.45093    1692.3807   -2.7616671    2.7969127    202.41568            0 
  565000       564998    99.943738   0.91486831     30587840 0.00087093517     202.4778    1691.7464   -3.4820845    2.8557087    203.10418            0 
  565500       565498    99.947835   0.87005112     30632805 0.00086965675    202.48579    1691.8154     -3.37794    2.8866133    202.97712            0 
  566000       565998    100.00001   0.87717067     30671965 0.00086854643    201.46991     1691.577    -3.651563    2.7473866    202.37408            0 
  566500       566498    100.05942   0.89735198     30687707 0.00086810089    199.87633    1690.8687    -4.850174    2.8123843    201.91412            0 
  567000       566998    99.985165   0.94102396     30676850 0.00086840813    201.88916     1691.775   -3.9678007    2.7251334    203.13183            0 
  567500       567498    99.972978    1.0175507     30650212 0.00086916287    202.35237    1692.0567   -3.9206095    2.6290586    203.64392            0 
  568000       567998    100.01874    1.0105962     30652377 0.00086910146    201.72463    1692.1109   -3.3388276    2.7972456    202.26621            0 
  568500       568498     100.0294     1.083921     30659125 0.00086891018    200.41522    1690.9603   -4.0285558    2.6648963    201.77888            0 
  569000       568998      100.003    1.1249652     30655471 0.00086901375    202.53261    1692.6842   -2.8907179    2.5871066    202.83622            0 
  569500       569498    100.00415    1.0870969     30617538 0.00087009039    201.62406    1691.7928   -4.0483958     2.690693    202.98176            0 
  570000       569998    99.962218    1.0558162     30602236 0.00087052546    202.85914    1692.4031   -2.2694996    2.5956184    202.53302            0 
  570500       570498    99.998058   0.96969152     30604671 0.00087045621    202.06803     1692.146   -3.4368393    2.6562787    202.84859            0 
  571000       570998    99.974963   0.96323654     30612992 0.0008702196    201.59918    1691.3331    -4.203436    2.7721448    203.03048            0 
  571500       571498     100.0858   0.95103447     30634353 0.00086961282    200.09331    1691.4788   -4.5700984    2.5989896    202.06442            0 
  572000       571998    100.00344   0.98786454     30675934 0.00086843405    200.57556    1690.7338   -4.8876392    2.7719984     202.6912            0 
  572500       572498    99.954834    0.9898059     30725797 0.00086702472    201.62242    1691.0563   -4.4260794    2.8775431    203.17096            0 
  573000       572998    99.945859   0.95548381     30753748 0.00086623673    202.10045    1691.4006   -4.4179643    2.7288933    203.78952            0 
  573500       573498    100.09353    0.8980921     30763604 0.0008659592    198.22769    1689.7284   -6.7919851    2.5876838    202.43199            0 
  574000       573998    99.997672   0.90453466     30793681 0.00086511339    199.33559    1689.4078   -5.3001236     2.635786    201.99993            0 
  574500       574498    100.09557   0.93332555     30818194 0.00086442529      199.672    1691.2031    -4.689096    2.7195289    201.64156            0 
  575000       574998    99.995354    1.0784633     30811998 0.00086459911    200.70428     1690.742   -5.0675343    2.5886456    203.18317            0 
  575500       575498    99.996794    1.1350508     30788682 0.00086525387    199.93381     1689.993    -5.818755    2.6086807    203.14388            0 
  576000       575998    99.860761    1.2030911     30761971 0.00086600516    200.62023    1688.6524    -5.661078    2.7294613    203.55185            0 
  576500       576498    99.969523    1.1624256     30800508 0.00086492165    200.16631    1689.8191    -5.537618    2.6172995    203.08663            0 
  577000       576998    100.08582     1.076175     30899400 0.00086215351    200.10717    1691.4929   -4.3112494    2.5700155    201.84841            0 
  577500       577498    100.04077   0.97160346     31006105 0.00085918646    199.86139    1690.5759   -4.7398357    2.6737783    201.92745            0 
  578000       577998    100.01888   0.93659074     31060535 0.00085768085    200.32788    1690.7162   -5.4551054    2.6786518    203.10434            0 
  578500       578498    100.04008   0.86913703     31099565 0.00085660445    201.72571    1692.4299   -3.6444019      2.82144    202.54867            0 
  579000       578998     99.92802   0.89133177     31109209 0.0008563389    202.86719    1691.9016    -3.659983    2.7772482    203.74993            0 
  579500       579498    99.956691   0.94979947     31108301 0.0008563639    203.26343     1692.725   -2.9076474    2.6522207    203.51886            0 
  580000       579998    100.08564   0.98707221     31077836 0.00085720337    201.36831    1692.7514   -3.6404933    2.8230848    202.18572            0 
  580500       580498    100.05958    1.0145509     31077863 0.00085720263     199.8369    1690.8317   -4.5030323    2.8578137    201.48212            0 
  581000       580998    99.950808    1.0672242     31051069 0.00085794231    203.22023    1692.5942   -3.0339604    2.6717571    203.58243            0 
  581500       581498    99.975909    1.0551189     30988284 0.00085968059    202.31808     1692.066   -3.8966792    2.6425275    203.57223            0 
  582000       581998     100.0526    1.0302359     30921657 0.00086153293    201.72552    1692.6162    -3.590819    2.6062564    202.71008            0 
  582500       582498    100.03277    1.0495088     30881051 0.00086266578     201.5331    1692.1284   -4.1600445    2.7024229    202.99072            0 
  583000       582998    99.968332    1.0070816     30866369 0.00086307612    201.59666    1691.2317    -4.301531    2.6942621    203.20393            0 
  583500       583498    100.01561     1.020461     30859614 0.00086326505    201.34234    1691.6819   -3.7443678    2.5264214    202.56029            0 
  584000       583998    100.05257   0.99963918     30850885 0.00086350928    200.84878    1691.7391   -4.1404644    2.7032828    202.28596            0 
  584500       584498    99.984775     1.039679     30847308 0.00086360944    201.89566    1691.7757   -3.8990438    2.4998736    203.29483            0 
  585000       584998    99.887092    1.0613462     30878144  0.000862747    202.53249     1690.957    -3.517759    2.7829459    203.26731            0 
  585500       585498    99.938526    1.0675586     30921404 0.00086153998     202.4688    1691.6597   -4.0882089    2.8574588    203.69955            0 
  586000       585998    100.03513    0.9788357     30907303 0.00086193306    201.69628    1692.3266   -3.1333982    2.5089426    202.32074            0 
  586500       586498     100.0405   0.90448649     30873955 0.00086286406    200.58664     1691.297   -4.9251643    2.7892256    202.72258            0 
  587000       586998    100.01018   0.89285866     30876516 0.00086279247    202.15536    1692.4141     -3.74866    2.8113892    203.09263            0 
  587500       587498    100.02282   0.85778411     30892857 0.00086233611    201.48488    1691.9319    -4.136803    2.8299451    202.79174            0 
  588000       587998    100.00969   0.82716895     30916479 0.00086167722    201.82421    1692.0755   -3.8074739    3.0135771    202.61811            0 
  588500       588498    99.965471    0.9184093     30944147 0.00086090677    202.96214    1692.5546   -3.3701096    2.7760258    203.55623            0 
  589000       588998    99.955361   0.95645594     30948553 0.00086078422    203.52277    1692.9646   -2.4692058    2.8450032    203.14697            0 
  589500       589498    100.01321   0.99499827     30965242 0.0008603203    203.09296    1693.3968   -2.6276129    2.7463691     202.9742            0 
  590000       589998    100.02177     1.078718     30978444 0.00085995364    202.13769     1692.569   -3.2792637    2.5492211    202.86773            0 
  590500       590498    100.00232    1.1137907     31010775 0.00085905708    203.17863    1693.3202   -2.4957593    2.7672372    202.90715            0 
  591000       590998    100.06099     1.129877     31027662 0.00085858955    201.40946    1692.4253   -3.6487658    2.5387729    202.51946            0 
  591500       591498    99.928749    1.1193528     31004175 0.00085923996    203.81024    1692.8555    -2.250993    2.5749662    203.48627            0 
  592000       591998    99.977784    1.0276482     30941945 0.00086096805    202.94214     1692.718    -3.493755    2.7492598    203.68664            0 
  592500       592498    100.13431   0.92406634     30875740 0.00086281416    199.97088    1692.0792   -4.6249285      2.69344    201.90237            0 
  593000       592998    100.00548   0.96836834     30843236 0.00086372345    202.89975    1693.0883   -3.1812699    2.7589979    203.32202            0 
  593500       593498    99.984938   0.98087059     30822810 0.00086429582    203.40054    1693.2831   -2.9103628    2.9121746    203.39873            0 
  594000       593998    99.955679   0.98147908     30821808 0.00086432393    203.88261    1693.3291   -2.1658345    2.7795643    203.26888            0 
  594500       594498     99.98989   0.95700543     30814327 0.00086453377    202.36922    1692.3255   -3.9580266    2.8146591    203.51259            0 
  595000       594998    99.990957   0.94192637     30770360 0.00086576906    201.25715    1691.2293   -4.4145061    2.9194278    202.75223            0 
  595500       595498    100.03361   0.93483336     30746317 0.00086644608    200.74878    1691.3566   -5.0017794    2.8518106    202.89875            0 
  596000       595998    100.02379   0.94397544     30765406 0.00086590847    201.45972    1691.9212   -3.7601623    2.6438448    202.57603            0 
  596500       596498    99.960801   0.99721393     30781823 0.00086544667    203.63787    1693.1607   -2.8379565    2.6901822    203.78564            0 
  597000       596998    100.04771    1.0161151     30778115 0.00086555092     203.1337    1693.9516   -1.9665951    2.7692402    202.33105            0 
  597500       597498    99.949567    1.0689877     30801104 0.00086490491    203.62478    1692.9802   -2.5643535    2.5847691    203.60436            0 
  598000       597998    99.953829    1.1459155     30829156 0.00086411792    202.93746    1692.3564   -3.6397642    2.4762447    204.10098            0 
  598500       598498    100.02369    1.1674762     30841920 0.0008637603    201.33617    1691.7962   -4.0014434     2.573217     202.7644            0 
  599000       598998    100.00152    1.2349807     30828444 0.00086413788    200.51434    1690.6439   -5.0154278    2.5829911    202.94678            0 
  599500       599498    100.08188    1.2449816     30818176 0.00086442579    202.29134    1693.6184   -2.5375759    2.4836861    202.34523            0 
  600000       599998    100.03715    1.2098057     30808384 0.00086470052    203.36599    1694.0265    -2.743886    2.6059711     203.5039            0 
  600500       600498    99.977099    1.1416605     30815277 0.00086450711     202.5918    1692.3575   -3.4480337    2.7137198    203.32611            0 
  601000       600998    100.00835    1.0258323     30838196 0.0008638646     202.0158    1692.2472   -4.0737621    2.7170496    203.37251            0 
  601500       601498    99.942417   0.91809938     30866004 0.00086308632    203.62526    1692.8742   -2.0475232    2.8829134    202.78987            0 
  602000       601998    99.965362   0.78656183     30891466 0.00086237493    203.38802    1692.9788   -3.4341986    3.0920313    203.73019            0 
  602500       602498    100.01312   0.72011612     30907742 0.0008619208    201.14566    1691.4481   -5.1409842    3.0448291    203.24181            0 
  603000       602998    100.02607   0.77273019     30950658 0.00086072568    202.44599    1692.9413   -2.6108872    2.7803942    202.27648            0 
  603500       603498    99.927205   0.92863179     30980026 0.00085990974    204.73208    1693.7543   -2.2783259    2.7402265    204.27018            0 
  604000       603998    99.929165    1.0601511     31017553 0.00085886935    203.86077    1692.9122   -3.0712033    2.9293222    204.00265            0 
  604500       604498    100.03982    1.1972758     31054719 0.00085784146    202.02532    1692.7256   -3.6743512    2.7684233    202.93125            0 
  605000       604998    99.919216    1.2845801     31105867 0.0008564309     202.9402    1691.8434   -3.8267934    2.6016142    204.16538            0 
  605500       605498    100.00963    1.2022917     31152097 0.00085515997    203.07562     1693.326   -3.3731968    2.7401725    203.70864            0 
  606000       605998     100.0089     1.083112     31170977  0.000854642    203.53363    1693.7731   -2.2840763    2.6627307    203.15497            0 
  606500       606498    100.08779   0.92573269     31179163 0.00085441762     201.9005    1693.3156   -2.8204157    2.6252089     202.0957            0 
  607000       606998    99.910266   0.87770091     31179569 0.00085440647    204.39507    1693.1649   -2.3437803    2.8482128    203.89064            0 
  607500       607498     99.95339   0.76735554     31210847 0.00085355025     203.6557    1693.0681   -2.7232244    2.9733348    203.40559            0 
  608000       607998    99.967219   0.76342752     31225304 0.00085315506    203.96893    1693.5874   -2.6286977    2.7898198    203.80781            0 
  608500       608498    100.06726    0.8914437     31193844 0.00085401549    201.90319    1693.0124   -3.7722716    2.9464675    202.72899            0 
  609000       608998    100.07598   0.99225308     31168493 0.0008547101    200.95003    1692.1891   -4.5495041    2.9135619    202.58597            0 
  609500       609498    99.923974    1.1946274     31143491 0.00085539626    203.18158    1692.1557   -4.0437033    2.7414271    204.48385            0 
  610000       609998    100.06473    1.2475115     31129584 0.00085577841    201.33825    1692.4097    -3.952425    2.6094528    202.68123            0 
  610500       610498     100.0891    1.2136475     31143766 0.00085538871    201.02038    1692.4551   -4.1362941    2.6328652     202.5238            0 
  611000       610998    100.08328    1.1561388     31170754 0.00085464811     200.0828    1691.4307   -5.1868817    2.6259805     202.6437            0 
  611500       611498    99.991151    1.0584126     31199166 0.00085386981    201.05469    1691.0298   -5.4607959    2.5987033    203.91678            0 
  612000       611998    100.00011   0.92703035     31240076 0.00085275163     200.9927    1691.1012   -5.2964121    2.8241991    203.46492            0 
  612500       612498    99.953136   0.87772369     31276116  0.000851769    201.53157    1690.9402   -5.7870412    2.8494217    204.46919            0 
  613000       612998    99.944027   0.85467835     31324847 0.00085044393    202.39556    1691.6684   -4.3932827     2.898844       203.89            0 
  613500       613498    99.995558    0.8219471     31355054 0.00084962462    202.40376    1692.4445   -3.8496327      2.89469    203.35871            0 
  614000       613998    100.06031   0.86878839     31340827 0.00085001029    200.95514    1691.9608   -4.6798964    3.0179264    202.61711            0 
  614500       614498    99.934442   0.97887523     31326549 0.00085039772     203.3426    1692.4727   -3.6490434    3.1023774    203.88927            0 
  615000       614998    100.03296    1.0482919     31320406 0.00085056451    201.57213    1692.1702   -4.7136014    2.8433259    203.44241            0 
  615500       615498    99.998007    1.0836686     31360599 0.0008494744    201.97857    1692.0558   -4.5199267     2.763301    203.73519            0 
  616000       615998    99.965058    1.1611275     31366207 0.00084932252    201.63351    1691.2198   -4.1387555    2.6749557    203.09731            0 
  616500       616498    99.992542    1.1360612     31380994 0.0008489223    202.15881    1692.1546   -4.3805256    2.7630825    203.77625            0 
  617000       616998    99.933262    1.1244612     31382349 0.00084888565    202.16685    1691.2793   -4.4287284      2.84324    203.75234            0 
  617500       617498    100.02947    1.0589465     31370943 0.00084919431       202.75    1693.2961   -4.0046524    2.6714407    204.08321            0 
  618000       617998    100.03072    1.0331251     31376262 0.00084905034    201.43925    1692.0039   -5.0039044     2.873383    203.56978            0 
  618500       618498     100.1244   0.91765819     31396444 0.00084850456    199.78833    1691.7489   -4.9713062    2.8743462    201.88529            0 
  619000       618998    99.992356    0.9121248     31402856 0.0008483313    203.13658    1693.1296    -3.120658     2.772121    203.48512            0 
  619500       619498       99.973   0.90153489     31382890 0.00084887101    203.90223    1693.6068   -3.4856125     2.746076    204.64177            0 
  620000       619998    99.985466   0.93159636     31368171 0.00084926934    203.16967      1693.06   -3.9314354    2.8712538    204.22985            0 
  620500       620498    100.01966   0.97714609     31344575 0.00084990867    201.94826    1692.3481   -5.0458299    2.9635059    204.03059            0 
  621000       620998    100.01286   0.99041161     31334494 0.0008501821    202.75095    1693.0495   -3.0425069    2.8800779    202.91338            0 
  621500       621498    99.975077    1.0551057     31308423 0.00085089006    204.51666    1694.2522   -2.3276807    2.8409402     204.0034            0 
  622000       621998    100.03421    1.0229536     31268128 0.00085198659    202.77147    1693.3881   -3.8976972    2.7969294    203.87224            0 
  622500       622498     99.98984    1.0458919     31230242 0.00085302014    202.54375    1692.4993   -3.9520927    2.7701161    203.72573            0 
  623000       622998    100.00958     1.044443     31215131 0.00085343309     203.4826    1693.7323   -2.6350994    2.7427718    203.37493            0 
  623500       623498    100.02313     1.039087     31229083 0.00085305181    203.98723    1694.4388    -2.608266    2.6757337    203.91977            0 
  624000       623998    99.937754    1.0554235     31275543 0.00085178459    203.90962     1693.089   -3.1818267    2.7588358    204.33261            0 
  624500       624498    99.948739    1.0909897     31315543 0.00085069659    203.46057    1692.8037   -4.1721806    2.8650874    204.76766            0 
  625000       624998    99.969044    1.0831223     31349579  0.000849773    203.71201    1693.3577   -3.0565514    3.0601941    203.70837            0 
  625500       625498    100.02709   0.98346574     31352283 0.00084969973    203.86302    1694.3737   -1.7495468    2.8398629    202.77271            0 
  626000       625998    99.998662   0.91050261     31327447 0.00085037334     204.7794    1694.8664   -2.3059105    2.9762543    204.10906            0 
  626500       626498    100.00251   0.84161032     31304383 0.00085099988    204.63513    1694.7795   -2.4222653    3.1882168    203.86917            0 
  627000       626998    100.00794   0.82139318     31295978 0.00085122842    204.38484    1694.6101   -2.2277903    3.0886263      203.524            0 
  627500       627498    99.982041   0.84355022     31296805 0.00085120593    204.99067      1694.83   -1.7371744    2.9985393    203.72931            0 
  628000       627998     100.0103   0.91875922     31266191 0.00085203937    204.03163    1694.2921   -3.3807938    3.1594467    204.25297            0 
  628500       628498    99.879992   0.95702811     31273409 0.00085184273    204.51889    1692.8376   -3.4311522    3.1433701    204.80667            0 
  629000       628998    100.02928   0.95077678     31261484 0.00085216767    203.82018    1694.3634   -2.7448115    3.0847251    203.48026            0 
  629500       629498    99.934173   0.97260723     31262570 0.00085213805    204.97439    1694.1004   -2.3837267    3.1201688    204.23794            0 
  630000       629998    100.01435   0.95784595     31280973 0.00085163673    203.60347    1693.9242   -3.0946443    2.8334154    203.86469            0 
  630500       630498    99.964723   0.93207256     31318329 0.00085062092    204.48315    1694.0644   -2.2902198    2.8658718    203.90749            0 
  631000       630998    99.976169   0.97185484     31360589 0.00084947466    205.25792    1695.0098   -2.3841037    2.9709573    204.67107            0 
  631500       631498    100.01866   0.95994183     31404346 0.00084829106    202.87464    1693.2597   -3.6864183    2.8349679    203.72609            0 
  632000       631998    99.970469    1.0429572     31427196 0.00084767429    204.21198    1693.8789    -3.115788    2.7871909    204.54057            0 
  632500       632498    99.954734    1.0454249     31393406 0.00084858666    204.92599    1694.3584   -2.6105285    2.9315524    204.60497            0 
  633000       632998    100.11483    1.0288574     31328599 0.00085034208    202.27273    1694.0907    -3.395711     2.894901    202.77354            0 
  633500       633498    100.00331    1.0259043     31248810 0.00085251328    202.62017    1692.7765   -4.2537889    2.8831392    203.99082            0 
  634000       633998    99.890973    1.0422085     31201892 0.0008537952    205.18351    1693.6658   -3.8046996     2.930428    206.05778            0 
  634500       634498    100.00276   0.96103237     31186897 0.00085420572     203.5821    1693.7302   -2.9966972     2.951102     203.6277            0 
  635000       634998    100.03427   0.96287072     31202552 0.00085377715    204.11441     1694.732   -2.6129768    2.8608617    203.86653            0 
  635500       635498    100.01974   0.88554895     31235819 0.00085286786    204.29438    1694.6955   -1.9704688    3.0252334    203.23961            0 
  636000       635998    100.02792   0.87334752     31266497 0.00085203105    202.93823    1693.4611   -3.2010004    2.7963781    203.34285            0 
  636500       636498    100.07081   0.91833072     31273458 0.00085184138    201.74717    1692.9092   -4.6993823    2.7477332    203.69882            0 
  637000       636998    99.979606    1.0441526     31286679 0.00085148142    203.06999     1692.873   -4.3103087    2.8791126    204.50119            0 
  637500       637498    100.03889    1.1457805     31287452 0.00085146039    202.10458     1692.791   -4.8465825    2.7541515    204.19701            0 
  638000       637998     100.0428    1.1554295     31298348 0.00085116397    201.25724     1692.002   -5.0726106    2.7650638    203.56478            0 
  638500       638498     100.0001    1.1850373     31325153 0.00085043563    203.08496    1693.1933   -3.8601374    2.8937844    204.05131            0 
  639000       638998    99.944221    1.0980062     31349159 0.0008497844    204.55938    1693.8352    -2.901753    2.7173454    204.74378            0 
  639500       639498    100.08182   0.96944979     31356978 0.00084957249    201.94381      1693.27   -3.9913554    2.7798647     203.1553            0 
  640000       639998    100.00226   0.94728271     31353350 0.0008496708    202.21076    1692.3514   -4.4339663    2.8758881    203.76883            0 
  640500       640498    100.00003   0.95759747     31353296 0.00084967227    201.00055    1691.1079   -5.7643663    2.8888785    203.87604            0 
  641000       640998    99.944653   0.96612816     31380004 0.00084894909    203.54778      1692.83   -3.8101823    3.1672331    204.19073            0 
  641500       641498    100.04252   0.94481254     31402083 0.00084835219    202.52832    1693.2689    -3.949248    2.9470553    203.53051            0 
  642000       641998    99.971058   0.89663816     31420754 0.00084784809     204.1006    1693.7763   -3.3792699    2.9351452    204.54473            0 
  642500       642498    99.944009    0.8961633     31404368 0.00084829046    204.63868    1693.9113   -3.3961893    2.8437897    205.19108            0 
  643000       642998    100.06255   0.90925786     31386890 0.00084876283    202.65267    1693.6917   -3.7987262    2.7374867    203.71391            0 
  643500       643498    99.964955    1.0958598     31394433 0.0008485589     203.8263     1693.411   -2.5453378    2.7421086    203.62953            0 
  644000       643998    100.05794    1.1426337     31376570  0.000849042    203.02958    1693.9999   -3.7617738    2.8110771    203.98028            0 
  644500       644498    100.01385    1.2007166     31369138 0.00084924316    202.91495    1693.2283   -3.8580844    2.8423691    203.93066            0 
  645000       644998    99.948206    1.1820252     31354409 0.00084964211    202.85681     1692.192   -5.1595485    2.7801083    205.23625            0 
  645500       645498     100.0212    1.0660156     31374108 0.00084910864    202.89941    1693.3223   -4.2750728    2.7295263    204.44496            0 
  646000       645998    100.07096    1.0119229     31374980 0.00084908504    201.69358    1692.8578    -4.963883    2.9392434    203.71822            0 
  646500       646498    99.934173    1.0103194     31377783 0.00084900917    204.34361    1693.4697   -3.7868085     2.883242    205.24717            0 
  647000       646998    100.06529    0.9805624     31334527 0.0008501812     202.4578    1693.5377   -4.9646319    2.8546561    204.56778            0 
  647500       647498    100.01173   0.98075705     31296747 0.00085120751    202.92893    1693.2107   -3.5957441    2.8875628    203.63711            0 
  648000       647998    100.08692   0.95608076     31259705 0.00085221618    202.95082    1694.3529   -3.0203746    2.8331181    203.13808            0 
  648500       648498    99.988572    1.0099108     31214645 0.00085344637    203.41616    1693.3528   -3.4051009    2.8781299    203.94313            0 
  649000       648998    99.970487    1.0226268     31186628 0.0008542131    205.01867    1694.6858   -3.1022764    2.7146988    205.40625            0 
  649500       649498    99.919645    1.0663968     31172442 0.00085460183    203.35646     1692.266   -5.2497638     2.991301    205.61493            0 
  650000       649998    100.02154    1.0584392     31144580 0.00085536635    202.73773    1693.1656   -4.4567849    3.0472303    204.14728            0 
  650500       650498    100.03716    1.0112785     31108846 0.00085634891    201.92332     1692.584   -4.6276632    2.7851425    203.76584            0 
  651000       650998    100.04267   0.97820032     31081265 0.0008571088    203.26916    1694.0119   -3.3380053    2.9493595     203.6578            0 
  651500       651498    99.968587   0.89237181     31075208 0.00085727586    203.81841    1693.4573    -3.983079    2.9426106    204.85888            0 
  652000       651998    99.895374   0.90877158     31075549 0.00085726647    205.07594    1693.6238   -3.1272766    2.8555959    205.34762            0 
  652500       652498    99.934811   0.91694919     31095920 0.00085670488    204.38262    1693.5182    -3.963213    3.1126533    205.23318            0 
  653000       652998    100.11425   0.90980149     31140120 0.00085548887    201.01463     1692.824   -5.1372959    3.1066797    203.04525            0 
  653500       653498    99.985367   0.96989224     31169418 0.00085468474    203.98966    1693.8786    -3.595083    2.9820411     204.6027            0 
  654000       653998     99.92989    1.0166783     31186773 0.00085420913    204.10538    1693.1676    -4.102635    2.9867299    205.22129            0 
  654500       654498    99.912165    1.0717668     31204756 0.00085371684    204.57534    1693.3734   -3.0561215    3.0530556    204.57841            0 
  655000       654998    99.991625    1.0134768     31265781 0.00085205056    203.40619    1693.3883   -3.8722032    2.9191252    204.35927            0 
  655500       655498    99.995855    1.0678487     31309780 0.00085085319    203.89155    1693.9367   -4.0426324    2.9389925    204.99519            0 
  656000       655998    99.911474    1.0762157     31339170 0.00085005524    205.98337    1694.7712   -2.1721526    3.0826652    205.07286            0 
  656500       656498    99.967202    1.0548428     31358885 0.00084952082     205.4399    1695.0581   -2.7341451    2.8812232    205.29283            0 
  657000       656998    100.09319    1.0113925     31378918 0.00084897847     202.4738    1693.9694   -3.4749391    3.0310434    202.91769            0 
  657500       657498    100.05725   0.98022833     31369688 0.00084922828    203.93428    1694.8944   -2.9340426    3.1872686    203.68105            0 
  658000       657998    99.889925   0.90276502     31350844 0.00084973872    205.61999    1694.0867   -2.8924663    2.9145994    205.59786            0 
  658500       658498    99.924643   0.81754523     31335846 0.00085014542    205.44872    1694.4328   -2.3228648    3.0254104    204.74618            0 
  659000       658998    99.992026   0.83269667     31314419 0.00085072713    204.62298    1694.6111   -3.5091899    3.0573229    205.07484            0 
  659500       659498    100.00183   0.90522455     31319597 0.0008505865     203.2549    1693.3891    -4.443025     2.917983    204.77994            0 
  660000       659998    100.00954    0.9786282     31395656 0.00084852587    205.27649    1695.5256   -2.0996326    2.9331289      204.443            0 
  660500       660498    99.983193    1.0747907     31438971 0.00084735681    204.92271    1694.7792   -2.2379294    2.9299526    204.23068            0 
  661000       660998     99.96524    1.1955228     31469787 0.00084652704    205.95315    1695.5421   -2.0717353    2.8079119    205.21697            0 
  661500       661498    100.02303    1.1900336     31476380 0.00084634974    202.80293     1693.253   -4.5654499    2.7471085    204.62127            0 
  662000       661998    99.936138    1.1329884     31505558 0.00084556592    203.79892    1692.9543   -4.1171059    2.8809065    205.03512            0 
  662500       662498    100.05154    1.0650674     31466178 0.00084662413    203.54904     1694.424   -4.3338037    2.8662221    205.01662            0 
  663000       662998    99.876235   0.99829784     31443584 0.00084723248    204.37988    1692.6426   -4.6361995    2.9234186    206.09266            0 
  663500       663498    99.976158   0.90181092     31429770 0.00084760486    204.37607    1694.1277   -3.4666413    3.0414874    204.80122            0 
  664000       663998    100.07118   0.78535704     31430247 0.00084759201    203.35422    1694.5219   -3.7024834    3.2664658    203.79023            0 
  664500       664498     99.97094   0.73318567     31439795 0.00084733459    203.88316    1693.5571    -3.815686    3.1621597    204.53669            0 
  665000       664998    99.948615   0.71705715     31406017 0.00084824592    204.52385    1693.8651   -3.3869215    3.2723966    204.63838            0 
  665500       665498    99.951994   0.76973781     31397097 0.00084848692    205.19015    1694.5818   -2.9015991    3.3386176    204.75313            0 
  666000       665998    99.959622   0.93796981     31387268 0.00084875262    205.47098    1694.9762   -3.0050951    3.0909751     205.3851            0 
  666500       666498    100.02789    1.1248478     31362633 0.00084941931    205.32339     1695.846   -2.4612586    2.8633744    204.92127            0 
  667000       666998    99.936984    1.2620719     31341297 0.00084999755      205.166    1694.3339   -2.5787425    3.0155355    204.72921            0 
  667500       667498    100.00463    1.3031506     31366329 0.0008493192    204.96176    1695.1377   -2.9280876    2.7889121    205.10094            0 
  668000       667998    100.05743    1.2748627     31387044 0.00084875869     203.9971    1694.9599   -3.0686718    2.8724618    204.19331            0 
  668500       668498    99.984738    1.1378353     31425640 0.00084771627    204.09496    1693.9745   -4.0485305    3.0757674    205.06772            0 
  669000       668998    99.991525    1.0213053     31471390 0.00084648393    202.95983    1692.9405   -4.7195332    3.0843335    204.59503            0 
  669500       669498    99.952457   0.93345485     31511183 0.00084541498    204.45594    1693.8544   -4.0750859    3.3741258     205.1569            0 
  670000       669998    99.966933   0.80727564     31533190 0.00084482496     205.3215    1694.9357   -3.3864669    3.2334679     205.4745            0 
  670500       670498     99.95793   0.67652914     31523389 0.00084508763    204.43894     1693.919   -4.0857148    3.2703675    205.25429            0 
  671000       670998    99.988082   0.64055529     31529750 0.00084491712    203.98495    1693.9143   -4.7353261    3.2816462    205.43863            0 
  671500       671498    99.982575   0.66664762     31514938 0.00084531424    202.99431    1692.8416   -5.4110175    3.2720017    205.13332            0 
  672000       671998     100.0709     0.800095     31484267 0.00084613773    202.17174    1693.3352   -5.1974172    3.1955307    204.17363            0 
  672500       672498    99.920285   0.98184286     31454560 0.00084693684    205.65448    1694.5736   -3.7565255     3.065424    206.34559            0 
  673000       672998    99.983134    1.1431539     31436500 0.0008474234    204.15901    1694.0146   -4.0200543    3.0808425    205.09822            0 
  673500       673498    99.986515    1.2651979     31474860 0.0008463906    205.53893    1695.4449   -2.3683708    2.7549264    205.15237            0 
  674000       673998     100.1098    1.2472326     31515885 0.00084528885    203.11019    1694.8533   -3.3878834    2.7096329    203.78844            0 
  674500       674498    99.969757    1.2731166     31535301 0.00084476841    205.82281    1695.4791   -3.1974391    2.9465697    206.07368            0 
  675000       674998    100.03417    1.1415848     31567331 0.00084391125    203.93239    1694.5485   -4.0789558    2.6586806    205.35267            0 
  675500       675498    100.06608    1.0966795     31615654 0.00084262138    203.39545     1694.487   -3.5720715    2.5601413    204.40738            0 
  676000       675998     100.0506    1.0448449     31614039 0.00084266441    204.00419    1694.8651   -3.7118792    3.0327717     204.6833            0 
  676500       676498    99.949248    1.0691639     31624060 0.0008423974    204.20455    1693.5552   -4.1827882      2.91579    205.47155            0 
  677000       676998    99.974816    1.0020615     31654137 0.00084159696    205.18655    1694.9182    -3.531935    3.0756996    205.64279            0 
  677500       677498    100.02646   0.90024127     31650221 0.00084170111    203.98145    1694.4827   -3.9395149    3.2497306    204.67123            0 
  678000       677998    100.09388   0.82668364     31623786 0.0008424047    203.29799    1694.8039   -4.1980774    3.1177235    204.37834            0 
  678500       678498    99.878197   0.77309301     31592661 0.00084323465    206.40187    1694.6938   -3.4181472    3.2326443    206.58738            0 
  679000       678998    100.02021   0.74296005     31578927 0.00084360137    204.52285    1694.9309    -3.641915    3.1314995    205.03326            0 
  679500       679498    99.947844   0.85931503     31582766 0.00084349881    205.69413    1695.0239   -2.8664656    3.1242358    205.43636            0 
  680000       679998    99.994337   0.97260688     31583731 0.00084347304    204.62595    1694.6485   -4.1472808    3.1006725    205.67256            0 
  680500       680498    100.00758    1.0826367     31580197 0.00084356743    204.58651    1694.8065   -3.9274569    3.0026026    205.51136            0 
  681000       680998    99.981465    1.1772447     31637825 0.00084203089     204.5916    1694.4224   -3.5265978    3.0081449    205.11005            0 
  681500       681498     100.1079    1.1959917     31667696 0.00084123663    202.78312     1694.498   -3.7029435    2.8434224    203.64265            0 
  682000       681998    99.870637    1.2750853     31679489 0.00084092348    204.67444    1692.8537   -3.8928856    2.8637189    205.70361            0 
  682500       682498    99.936152    1.1731781     31686787 0.00084072979    204.02148     1693.177   -5.6051994    2.8459933    206.78069            0 
  683000       682998    99.973477    1.0483211     31647043 0.00084178564    204.98104    1694.6928   -3.4631679    2.9825962    205.46162            0 
  683500       683498    99.966822   0.98238626     31598181 0.00084308733    205.06844     1694.681   -4.1515363    3.0225876    206.19739            0 
  684000       683998    100.07223   0.89032469     31583670 0.00084347469    203.67458    1694.8578   -3.7372253    3.1047663    204.30704            0 
  684500       684498    100.00809   0.85619108     31605311 0.00084289714    205.54249      1695.77   -2.6260333    3.1506645    205.01785            0 
  685000       684998    99.979972   0.85152544     31588672 0.00084334111     205.2655     1695.074   -4.2572354     3.471602    206.05114            0 
  685500       685498    100.02895   0.82185552     31572817 0.00084376463    204.78006    1695.3184   -3.5253546    3.3573927    204.94802            0 
  686000       685998    100.00329   0.82111292     31528365 0.00084495425    203.37348    1693.5295   -5.2866553    3.1947998    205.46533            0 
  686500       686498    99.966091   0.82910085     31490373 0.00084597365     205.0421    1694.6438    -4.349005    3.1337189    206.25739            0 
  687000       686998    99.999693    0.8347494     31459308 0.00084680901    205.01099    1695.1134   -3.8463052    3.1495863    205.70771            0 
  687500       687498    99.920689   0.92272122     31458148 0.00084684025    206.03208    1694.9572   -3.1786175    3.1534229    206.05727            0 
  688000       687998     100.0164      1.02259     31484071 0.00084614299    205.17485    1695.5262   -3.0926831    3.0761991    205.19134            0 
  688500       688498    100.07768    1.1190181     31529123 0.00084493394    204.28155     1695.546   -3.0427229    2.8654423    204.45883            0 
  689000       688998    99.959817    1.1636306     31562961 0.0008440281     206.4574    1695.9656   -2.1402191    3.0611379    205.53648            0 
  689500       689498    100.05398    1.1535666     31575590 0.00084369052    204.62635    1695.5376    -3.030531    2.7154656    204.94141            0 
  690000       689998    99.950161    1.1715215     31579419 0.00084358823    206.11779    1695.4821   -2.8378775    2.8592447    206.09642            0 
  690500       690498    99.854156    1.1672171     31571803 0.00084379172    207.24087    1695.1746   -2.0012068    2.9549458    206.28713            0 
  691000       690998    100.02814     1.080994     31565728 0.0008439541    204.92287    1695.4492   -3.5575928    2.8854527    205.59501            0 
  691500       691498    100.02412    0.9414081     31564588 0.00084398459    204.47481    1694.9411   -3.8282597    3.1073934    205.19568            0 
  692000       691998    100.01236   0.88304529     31565286 0.00084396592    204.80928    1695.1004   -3.6207883    2.9756953    205.45437            0 
  692500       692498    99.997616   0.84457474     31559843 0.00084411149    204.45974    1694.5312   -4.8646317    3.0259342    206.29844            0 
  693000       692998    100.00149   0.88981947     31579674 0.0008435814    205.08276    1695.2119    -3.369667    3.0912599    205.36117            0 
  693500       693498    100.04334   0.99252411     31553355 0.00084428506     204.7902    1695.5429   -3.3280974    3.0404066    205.07789            0 
  694000       693998    99.965035    1.0697497     31540068 0.00084464071    205.96976    1695.5557   -3.0293904    2.9884806    206.01067            0 
  694500       694498    99.933881    1.0907895     31537668 0.00084470499    206.06101    1695.1827   -2.9511196    3.0455577    205.96657            0 
  695000       694998    99.992857    1.0925477     31538661 0.0008446784    206.38441    1696.3849   -2.3814252    3.1616075    205.60423            0 
  695500       695498    100.06151    1.0360224     31524091 0.00084506881    205.20134    1696.2249   -2.8670098    2.9988058    205.06955            0 
  696000       695998      99.9725    1.0082376     31511360 0.00084541023    205.88128    1695.5784   -2.9931976    2.9555183    205.91896            0 
  696500       696498    99.990688   0.94504315     31489608 0.00084599421    205.51741    1695.4856   -3.4297838    3.1847221    205.76247            0 
  697000       696998    99.974877    0.8721099     31449906 0.00084706218    205.70901    1695.4416   -3.6784978    3.3631699    206.02433            0 
  697500       697498    100.07244   0.83424846     31412671 0.00084806625    204.12301    1695.3093   -3.9417712    3.1417903    204.92299            0 
  698000       697998    99.956119   0.87529677     31413535 0.00084804292    205.33951    1694.7926   -3.6747601     3.015028    205.99924            0 
  698500       698498    100.06077   0.90995626     31438561 0.00084736786    203.63833    1694.6508   -4.2231051    3.0972898    204.76414            0 
  699000       698998    100.01167    1.0183542     31472505 0.00084645394    203.88791    1694.1688   -4.9655698    3.0020059    205.85147            0 
  699500       699498     99.96156    1.0781752     31492842 0.00084590733    206.04413    1695.5783   -3.5891685    3.0361935    206.59711            0 
  700000       699998    99.976937    1.1565118     31479217 0.00084627345    204.48383    1694.2471   -4.5710063    3.0445869    206.01025            0 
  700500       700498     99.99183    1.1048197     31469516 0.00084653433    203.79932    1693.7845   -5.1480526    3.0587555    205.88862            0 
  701000       700998    100.03507    1.0542373     31453682 0.00084696049    203.13301    1693.7626   -5.5280456    3.0864789    205.57458            0 
  701500       701498    100.00616   0.97604177     31450180 0.00084705481    204.61046    1694.8092   -4.1878505    3.2358622    205.56245            0 
  702000       701998    100.04362   0.91052957     31459471 0.00084680464    204.69987    1695.4568   -3.3577275    3.1136082    204.94399            0 
  702500       702498    99.984113   0.91419571     31466414 0.00084661779    205.51204    1695.3823   -3.5845203    3.1684589     205.9281            0 
  703000       702998    99.943591   0.87288129     31488253 0.00084603062    205.69686    1694.9633     -3.96053     3.295648    206.36175            0 
  703500       703498    100.01158   0.89616492     31486248 0.0008460845    204.26765    1694.5472   -4.6584865    3.2678049    205.65834            0 
  704000       703998    99.975164   0.93852061     31455136 0.00084692134    205.15409     1694.891   -4.1243595    3.0874866    206.19097            0 
  704500       704498    100.07122   0.97606161     31399670 0.00084841739    204.92729    1696.0954   -2.9915985    3.0633942    204.85549            0 
  705000       704998    100.01676    1.0351222     31353685 0.00084966173    205.66092    1696.0177   -3.0282636    3.1047536    205.58443            0 
  705500       705498     100.0226    1.0452597     31344937 0.00084989886    204.94502    1695.3887   -3.5769995    3.1541879    205.36783            0 
  706000       705998    99.978977    1.0817196     31354145 0.00084964925    205.27296    1695.0666   -3.6320802    2.8972528    206.00779            0 
  706500       706498    99.991272    1.0370855     31392474 0.00084861188     204.7203    1694.6972   -3.6555477    2.9483344    205.42752            0 
  707000       706998    100.01335      1.02463     31417081 0.00084794721     205.3247    1695.6306   -3.9721328    3.1365633    206.16027            0 
  707500       707498    99.931089   0.98631847     31454038 0.0008469509    206.76494     1695.845    -3.374305    3.1827941    206.95646            0 
  708000       707998    100.02248   0.91216979     31495072 0.00084584743    205.25329    1695.6952   -3.9558489     3.067158    206.14198            0 
  708500       708498    100.03122   0.86342764     31534608 0.00084478696    204.12943    1694.7016   -4.1314098    3.2355722    205.02527            0 
  709000       708998    100.02492   0.85249144     31573318 0.00084375123    204.97823    1695.4565   -3.9800774    3.1450868    205.81322            0 
  709500       709498    99.984391   0.91778244     31557995 0.00084416092     205.3921    1695.2664   -4.2083189    3.1146984    206.48572            0 
  710000       709998    100.06248   0.91661905     31501463 0.00084567583    203.83453    1694.8725   -4.6787784    3.2199535    205.29335            0 
  710500       710498    99.974963    1.0003327     31456649 0.00084688059    204.29876    1694.0326   -5.4250283    3.1310898     206.5927            0 
  711000       710998    99.961005    1.1030919     31445489 0.00084718116     205.8741       1695.4   -4.2652207    2.8301496    207.30917            0 
  711500       711498    100.02309    1.0955514     31460426 0.00084677892    203.73972    1694.1907   -4.1653848    2.9345372    204.97057            0 
  712000       711998    100.09686    1.1417903     31481663 0.0008462077    203.97504    1695.5252   -3.8540244    2.9080201    204.92104            0 
  712500       712498    100.00725    1.1922962     31518872 0.00084520874     204.5283    1694.7433    -5.119936    2.9856294    206.66261            0 
  713000       712998    99.970853    1.1424995     31554731 0.00084424822    204.86648    1694.5391   -4.8330692    2.9189714    206.78057            0 
  713500       713498    100.00428    1.1510006     31537278 0.00084471546    204.67059    1694.8413   -4.4926135    3.0725736    206.09063            0 
  714000       713998     99.99706    1.0477005     31525937 0.00084501933    205.28093    1695.3441   -3.8649138    3.2051738    205.94067            0 
  714500       714498    100.00234   0.96848145     31513706 0.00084534729    206.30292    1696.4447    -2.645505    3.0594382    205.88899            0 
  715000       714998     99.99577   0.82222134     31480721 0.00084623303    205.72809     1695.772   -3.3671431    3.1899988    205.90523            0 
  715500       715498    99.959559   0.76722405     31427000 0.00084767958    207.12865     1696.633   -2.9874698    3.1469125    206.96921            0 
  716000       715998    100.01743   0.77393815     31386192 0.00084878171    204.74106    1695.1078   -4.3312939    3.3171697    205.75519            0 
  716500       716498    99.994358   0.86031772     31378295 0.00084899532    204.91498    1694.9379   -4.1361326    3.2454832    205.80563            0 
  717000       716998    100.07547   0.96757525     31375472 0.00084907172    203.68284    1694.9144   -5.3488482    3.0619644    205.96973            0 
  717500       717498    99.857155    1.1834757     31387595 0.00084874378    205.02359     1693.002   -4.5821791    3.1382941    206.46748            0 
  718000       717998    99.985015    1.2187381     31454590 0.00084693605    204.51102    1694.3947   -4.5117246    2.9666337    206.05611            0 
  718500       718498    99.964388    1.2602601     31492058 0.00084592838    206.79608    1696.3724    -3.193267    3.0846442     206.9047            0 
  719000       718998    99.957511    1.2044369     31489543 0.00084599594    205.67949    1695.1533   -4.5555234    3.2762576    206.95876            0 
  719500       719498    100.06597    1.0970257     31486911 0.00084606666    204.69188    1695.7819   -4.2941846    3.1043997    205.88166            0 
  720000       719998    100.09999   0.97187082     31480419 0.00084624116    203.27157    1694.8685   -4.6244697    2.9440037    204.95203            0 
  720500       720498    100.08015   0.85350894     31492098 0.00084592732    204.33336    1695.6346   -3.9519309    3.2692409    205.01605            0 
  721000       720998    99.860335   0.86429976     31505280 0.00084557337    207.63142    1695.6572   -3.1741614    3.2631254    207.54246            0 
  721500       721498    99.874251   0.86982078     31550866 0.00084435165     206.7364    1694.9695    -4.197532    3.2244686    207.70946            0 
  722000       721998     100.0429   0.92525663     31562578 0.00084403833    203.94707    1694.6933   -4.9647161    3.1701865     205.7416            0 
  722500       722498    99.975578   0.96946841     31565853 0.00084395076    205.99537    1695.7384   -2.8336546    3.1810364    205.64799            0 
  723000       722998    99.945571   0.98697493     31553282 0.00084428701    206.73742    1696.0333   -3.3543194    3.2034463    206.88829            0 
  723500       723498    100.07033    1.0155505     31523522 0.00084508406    204.11569    1695.2706   -4.8606918    3.0671948    205.90919            0 
  724000       723998    99.930626    1.0478547     31541632 0.00084459885    205.22876     1694.302   -4.2136825    3.2594234    206.18302            0 
  724500       724498    99.998288    1.0464849     31570237 0.00084383358    205.76774    1695.8492   -3.6881572    3.0024265    206.45347            0 
  725000       724998      100.036    1.0091394     31585541 0.00084342472     205.8018    1696.4451   -3.0712575     2.935054    205.93801            0 
  725500       725498    100.00677    1.0787318     31579589 0.00084358368    205.94692    1696.1548   -4.1373662    3.0385316    207.04576            0 
  726000       725998    100.08432    1.0506652     31586439 0.00084340073    203.78969     1695.153   -4.8670723    3.0154271    205.64133            0 
  726500       726498    100.02087    1.0738681     31595642 0.00084315507    204.70455    1695.1225   -3.9782225    3.0548251    205.62795            0 
  727000       726998    99.966233    1.1287503     31566086 0.00084394453    205.35689    1694.9607   -4.4613202     3.026268    206.79194            0 
  727500       727498    100.01002    1.0768606     31525776 0.00084502364    203.97339    1694.2297   -5.3723854    3.0283912    206.31739            0 
  728000       727998    100.07158    1.0299028     31500533 0.00084570079    204.00296    1695.1766   -4.8296928    3.0202319    205.81243            0 
  728500       728498    99.987612    0.9884309     31476733 0.00084634023    206.10145    1696.0238   -3.3321531    3.1429273    206.29068            0 
  729000       728998    99.951118    1.0121683     31459056 0.00084681582    207.07343     1696.452   -3.1064953    3.1773029    207.00262            0 
  729500       729498     100.0174   0.94253635     31474102  0.000846411    205.62931    1695.9955   -4.0344054    3.1162198    206.54749            0 
  730000       729998    99.906654   0.95504977     31487132 0.00084606073    206.44328    1695.1593   -3.9937589    3.2734893    207.16355            0 
  730500       730498    100.06218   0.95813832     31512598 0.00084537701    205.45915    1696.4926   -3.3437818    3.0343211    205.76862            0 
  731000       730998    99.977825   0.96527723     31566787 0.00084392581    207.81356    1697.5901   -1.8685307    3.2798895     206.4022            0 
  731500       731498    99.986453    1.0181038     31577112 0.00084364985    206.92281    1696.8279   -3.0676516    3.3108089    206.67965            0 
  732000       731998    100.02725    1.0273184     31596463 0.00084313317    206.45502    1696.9681   -2.7402288    3.1077623    206.08749            0 
  732500       732498    100.08512    1.0419836     31593621 0.00084320902    205.45874    1696.8341   -3.4626006    3.2025668    205.71877            0 
  733000       732998    99.993868     1.030403     31582443 0.00084350744    206.00631    1696.0219   -3.7710261    3.3891436    206.38819            0 
  733500       733498    100.01402    1.0402921     31560090 0.00084410488    207.11771    1697.4336   -2.4677544     3.152578    206.43288            0 
  734000       733998    99.975735   0.97461392     31558588 0.00084414506    207.09791    1696.8433   -3.0139095    3.2823989    206.82942            0 
  734500       734498    99.960075   0.95345224     31603057 0.00084295724    207.08533    1696.5974   -3.3081225      3.25678    207.13668            0 
  735000       734998    100.02508    1.0071573     31630425 0.00084222788    205.45752    1695.9382   -3.3158254    3.2667645    205.50658            0 
  735500       735498    100.02352    0.9527916     31641886 0.00084192282    206.91435    1697.3718   -3.0821986    3.4390784    206.55747            0 
  736000       735998    99.999614    0.9865137     31666275 0.00084127439    206.66191    1696.7631   -3.2667657    3.3530493    206.57562            0 
  736500       736498     99.91057   0.98362103     31683684 0.00084081212    208.49896    1697.2733     -2.68925    3.0455082     208.1427            0 
  737000       736998    100.03234    0.9084291     31701359 0.00084034334    205.66023    1696.2491   -3.5027196    3.3019139    205.86104            0 
  737500       737498    99.957922   0.92159533     31753421 0.00083896553    207.44407     1696.924   -2.8563777    3.2639551    207.03649            0 
  738000       737998    99.926801   0.91212102     31817969 0.00083726355    207.63414    1696.6503   -2.4713024    3.2308065    206.87464            0 
  738500       738498    100.03415   0.87664103     31846610 0.00083651056    206.93675    1697.5526    -2.489171    3.2753875    206.15054            0 
  739000       738998    99.975439   0.93621045     31833137 0.00083686462    207.60608     1697.347   -2.3872286    3.1493953    206.84391            0 
  739500       739498    100.03306    1.0185294     31817853 0.0008372666    206.15073    1696.7503   -3.2478754    2.7648334    206.63377            0 
  740000       739998    100.01514    1.0958628     31817179 0.00083728435    206.53283    1696.8654   -3.3035872     3.176347    206.66007            0 
  740500       740498    100.02867    1.1660148     31830180 0.00083694237    206.08972    1696.6239   -3.7850956    3.1393319    206.73549            0 
  741000       740998     100.0466    1.1535062     31852554 0.00083635448    206.33786    1697.1392   -2.9186648    3.0583493    206.19817            0 
  741500       741498     100.0046    1.0750292     31878935 0.00083566235    207.84874    1698.0243   -2.0951901    3.2431017    206.70082            0 
  742000       741998    99.958193     1.017888     31892309 0.00083531191    207.67358    1697.1576   -2.7246644    3.2442473    207.15399            0 
  742500       742498    100.04684    0.9588148     31909449 0.00083486324     205.5335    1696.3384   -3.6544273    2.9265553    206.26137            0 
  743000       742998    99.997909   0.85797833     31928226 0.00083437226    206.17684    1696.2526   -3.3192502    3.3066296    206.18946            0 
  743500       743498    99.985757   0.85984812     31938596 0.00083410134    205.20816    1695.1029   -4.8687105    3.2474771    206.82939            0 
  744000       743998    99.910532    0.9234929     31976290 0.0008331181    207.80194    1696.5757    -3.208802    3.2834079    207.72733            0 
  744500       744498    100.04396    0.9987575     31982874 0.0008329466    205.90493     1696.667   -3.3955287    3.1156647     206.1848            0 
  745000       744998    100.00715    1.1368098     31967286 0.00083335277    206.23528    1696.4488   -3.2095069    3.0268892     206.4179            0 
  745500       745498     99.96975    1.1414024     31970939 0.00083325753     206.5253    1696.1815   -3.5395821    3.1940098    206.87087            0 
  746000       745998    100.03365    1.1437646     31978311 0.00083306545     203.3086     1693.917   -6.1493613    3.1494657     206.3085            0 
  746500       746498    99.870929    1.1009732     31960977 0.00083351726    206.81528    1694.9989   -4.1975069    3.2813505    207.73144            0 
  747000       746998    99.945969   0.96464018     31975708 0.00083313326    207.14673    1696.4486   -3.5564646    3.0402515    207.66294            0 
  747500       747498    99.982379   0.91133566     31981765 0.00083297547    207.90887    1697.7532    -2.420589    3.0085705    207.32089            0 
  748000       747998    99.943024   0.91050804     31973585 0.00083318857    207.33617    1696.5941   -3.1461264    3.3143755    207.16792            0 
  748500       748498    100.08168   0.87873383     31973017 0.00083320339    203.55103    1694.8751   -5.3849958    3.3474547    205.58857            0 
  749000       748998     100.0323    0.9340541     31984706 0.00083289889    203.63144    1694.2196   -6.0857262    3.2333127    206.48386            0 
  749500       749498    99.995262    0.9918872     32027003 0.00083179891    204.48717    1694.5235   -5.4216339    3.2971602    206.61164            0 
  750000       749998    99.922963    1.1007896     32053926 0.00083110026    205.76041    1694.7194   -5.1608497    3.0522653    207.86899            0 
  750500       750498    100.10505     1.084339     32035046 0.00083159007    202.83096    1694.5032   -5.9656234    2.8964698    205.90011            0 
  751000       750998    100.01867    1.1454144     32020652 0.00083196389    203.90181     1694.287    -5.746379    3.1034765    206.54472            0 
  751500       751498    99.960887    1.1903481     32025795 0.00083183027    205.53078    1695.0549    -4.956413    3.2230974    207.26409            0 
  752000       751998    100.00223    1.1049253     32014502 0.00083212371    203.02423    1693.1644   -6.5696418    3.1551921    206.43868            0 
  752500       752498    99.985991    1.0306455     31987057 0.00083283767    205.94527    1695.8435   -4.4666902    3.3215929    207.09037            0 
  753000       752998    100.09322   0.87136857     31962947 0.00083346589      204.229     1695.725   -4.9750188    3.4214711    205.78255            0 
  753500       753498    99.984725   0.77447418     31980990 0.00083299566    205.96699    1695.8463   -4.4832644    3.3940698    207.05619            0 
  754000       753998    99.940549   0.69493854     31981877 0.00083297256    206.71889    1695.9399   -4.2066319    3.5328071    207.39271            0 
  754500       754498    99.965422    0.7051387     32009065 0.00083226505    205.79724    1695.3889    -4.542823    3.4908711    206.84919            0 
  755000       754998    99.955322   0.79365345     32027237 0.00083179283    205.80134    1695.2425   -4.5455987    3.4049602    206.94198            0 
  755500       755498     100.0023   0.89348935     32033174 0.00083163867     206.0489    1696.1901   -4.0762648    3.3338619     206.7913            0 
  756000       755998    100.00536    1.0627232     32067092 0.00083075901    206.16611    1696.3529   -3.6832768     3.224633    206.62475            0 
  756500       756498    100.03694    1.1179066     32078472 0.0008304643    205.77642    1696.4337   -3.8085708    3.2810048    206.30398            0 
  757000       756998    99.988545    1.1530753     32066876 0.00083076461    204.95505    1694.8913   -5.6806479    3.0608633    207.57483            0 
  757500       757498    100.02776    1.1119161     32097684 0.00082996722     204.7854     1695.306   -5.0642654    3.0518495    206.79781            0 
  758000       757998    100.08245    1.0835676     32125243 0.00082925523      205.748    1697.0835   -3.4272324    3.0962359    206.07899            0 
  758500       758498    100.00847    1.0525037     32116312 0.00082948582    204.58739    1694.8206   -5.1894685    3.0773169    206.69954            0 
  759000       758998    100.05365   0.99742609     32106900  0.000829729    204.25452     1695.161   -5.8698534    3.2256659    206.89871            0 
  759500       759498    99.891493   0.94395171     32136485 0.00082896514    206.48103    1694.9711   -4.7086848    3.4060912    207.78362            0 
  760000       759998    100.05368   0.85479756     32172542 0.00082803608    205.81162    1696.7184   -3.7889301    3.1809137    206.41963            0 
  760500       760498    100.08143   0.82205632     32163251 0.00082827528     204.5543    1695.8747   -4.0470789    3.2893759      205.312            0 
  761000       760998    99.919392   0.88895057     32143033 0.00082879628    206.36189    1695.2677   -4.5231001    3.4514684    207.43352            0 
  761500       761498     99.90193   0.97040098     32152181 0.00082856046    207.96601    1696.6116   -3.9878836    3.2665247    208.68737            0 
  762000       761998    99.960077    1.0133779     32145024 0.00082874494    206.42042    1695.9325   -4.0985403    3.4372098    207.08175            0 
  762500       762498    100.02903    1.0308678     32134291 0.00082902173    206.29633    1696.8358   -3.5232999     3.178935    206.64069            0 
  763000       762998    100.05022    1.0349277     32109868 0.0008296523    204.97652    1695.8319   -4.1806372    3.2066566     205.9505            0 
  763500       763498    100.06917    1.0694911     32111465 0.00082961105    202.27552    1693.4131   -7.3937329    3.0994418    206.56981            0 
  764000       763998    99.945116     1.097877     32131133 0.00082910322    206.04142    1695.3305   -4.7039197      3.10992    207.63542            0 
  764500       764498    100.06446    1.0885553     32113198 0.00082956627    204.27025    1695.3378   -5.1077797     3.421589    205.95644            0 
  765000       764998    99.972394    1.0803787     32130500 0.00082911956    206.16635    1695.8619   -4.2970381    2.9918061    207.47158            0 
  765500       765498    100.02026    1.0588026     32153656 0.00082852244    205.47395    1695.8828   -4.5344773    3.0883886    206.92004            0 
  766000       765998    100.00761    1.0325984     32175630 0.00082795663     205.3921    1695.6124   -4.1839469    3.3353668    206.24068            0 
  766500       766498    100.00711    1.0147817     32210286 0.0008270658    206.28274    1696.4957   -3.9002591    3.3057112    206.87729            0 
  767000       766998    100.05168    1.0364527     32233297 0.00082647536     205.5754    1696.4524   -4.0439795    3.2977638    206.32162            0 
  767500       767498    99.876598     1.047529     32215522 0.00082693138    208.18715    1696.4553    -2.356058    3.2347608    207.30845            0 
  768000       767998    100.01671    1.0025131     32197188 0.00082740224    206.28191    1696.6379   -4.2153918    3.3637905    207.13351            0 
  768500       768498    99.908495    1.0360051     32177088 0.00082791911    206.35536    1695.0988   -4.3601393     3.245238    207.47026            0 
  769000       768998    100.03696   0.96442766     32194895 0.00082746117    205.91515    1696.5728   -3.8575449    3.3616797    206.41102            0 
  769500       769498    99.933329   0.99706107     32204307 0.00082721936    208.00577    1697.1192   -2.8849347    3.3207203    207.56999            0 
  770000       769998    99.972386   0.96454186     32220988 0.0008267911    207.23584    1696.9313   -3.3252963    3.4667536    207.09439            0 
  770500       770498    100.04369   0.91495968     32252991 0.0008259707    206.30995    1697.0679   -3.1636125    3.4674468    206.00611            0 
  771000       770998    99.977384   0.92080704     32247025 0.00082612353    207.92185    1697.6918   -3.0039676    3.1825319    207.74329            0 
  771500       771498    99.989405   0.91430942     32212773 0.00082700194    207.72156    1697.6706   -3.0214267    3.1986876     207.5443            0 
  772000       771998    99.955208   0.92510906     32168326 0.00082814463    206.83376    1696.2733   -3.9399916     3.647649     207.1261            0 
  772500       772498    100.03561   0.93250735     32121584 0.00082934969    206.34003    1696.9775   -4.1837918    3.6180784    206.90574            0 
  773000       772998    99.924045   0.92084419     32107128 0.0008297231    208.16143    1697.1366   -1.9230069    3.3103956    206.77404            0 
  773500       773498    100.00906   0.93383505     32131769 0.00082908681    206.69822    1696.9401   -4.3094421    3.3046563    207.70301            0 
  774000       773998    99.889384   0.94202824     32160892 0.00082833604     206.9329    1695.3916   -4.6292351    3.4296963    208.13244            0 
  774500       774498    100.04202   0.90545538     32170617 0.00082808563     204.4685    1695.2016   -4.9950281    3.6025997    205.86093            0 
  775000       774998    100.03088   0.98259121     32186677 0.00082767247    203.73272    1694.2998    -6.031367    3.2432599    206.52082            0 
  775500       775498    99.958417      1.01973     32219257 0.00082683552    207.54297    1697.0303   -3.3851973    3.2542743     207.6739            0 
  776000       775998      99.9801    1.0660258     32217255 0.0008268869    206.01736    1695.8278   -4.5112713    3.1337864    207.39485            0 
  776500       776498    100.02765   0.99308843     32206819 0.00082715484    205.90705     1696.426   -4.3286283    3.2489887    206.98669            0 
  777000       776998    100.04645    1.0001248     32179166 0.00082786564    204.10081    1694.8998   -5.3163362     3.277135    206.14001            0 
  777500       777498    100.05004    1.0135979     32197529 0.0008273935    205.08981    1695.9424   -4.7426245    3.2652523    206.56718            0 
  778000       777998    99.936835    1.0457523     32195218 0.00082745288    207.63717    1696.8029   -3.8329601    3.3173922    208.15274            0 
  778500       778498    99.959683    1.0494658     32159996 0.00082835912    206.95359    1696.4598   -3.7828395    3.2797199    207.45671            0 
  779000       778998    99.997223    1.0169739     32135735 0.00082898449    207.50971    1697.5753   -2.8530457    3.2768673    207.08588            0 
  779500       779498    99.884479   0.97729471     32092700 0.00083009612    209.12001    1697.5056   -2.0221148    3.5557555    207.58637            0 
  780000       779998    100.07863   0.88767591     32085400 0.00083028497    205.85004    1697.1287   -3.5028418    3.2501164    206.10276            0 
  780500       780498    100.01323   0.87582613     32107691 0.00082970855    208.47085    1698.7749   -2.1627027    3.3091847    207.32436            0 
  781000       780998    99.970969   0.94833851     32114905 0.00082952219    209.40806    1699.0824   -1.9146541    3.2009636    208.12175            0 
  781500       781498     100.0606   0.98376756     32097292 0.00082997738    207.47161    1698.4816   -2.4289487    3.1261554    206.77441            0 
  782000       781998    99.865241    1.0789336     32072829 0.00083061041    209.73085    1697.8297   -1.1673139    3.2057901    207.69238            0 
  782500       782498     99.95872    1.1497906     32079802 0.00083042987    208.50965    1698.0015   -2.8704807     3.214218    208.16591            0 
  783000       782998    100.06169    1.1865684     32057400 0.00083101019    206.14998    1697.1762   -4.3106983    3.2533451    207.20733            0 
  783500       783498    100.03095    1.1935922     32038095 0.00083151092    206.92624    1697.4943   -3.2877766    3.1513232     207.0627            0 
  784000       783998    100.05275    1.1595799     32001779 0.00083245454    207.00931    1697.9022   -3.0914101    3.2966531    206.80407            0 
  784500       784498    100.10926    1.0170381     31994658 0.00083263981    204.93303    1696.6681   -4.4780457    3.1525653    206.25851            0 
  785000       784998    99.945539   0.93540726     32017548 0.00083204455    207.16102    1696.4564   -4.2328242    3.0424415     208.3514            0 
  785500       785498    99.951894   0.84518932     32046717 0.0008312872    207.73098    1697.1211   -3.4879717    3.3980741    207.82088            0 
  786000       785998    100.05351   0.85714718     32064375 0.00083082941    206.23722    1697.1415   -4.0840114    3.4455099    206.87572            0 
  786500       786498    100.07982   0.92101837     32078290 0.00083046902    206.06905    1697.3654   -3.4136958    3.3909696    206.09178            0 
  787000       786998    99.991902     1.014324     32059165 0.00083096442    207.32816    1697.3144   -4.1727107    3.4391827    208.06169            0 
  787500       787498    99.930714    1.0759771     32037381 0.00083152946    207.98232    1697.0568   -3.8938534    3.4498688     208.4263            0 
  788000       787998    100.03139    1.0307255     31982890 0.00083294617    206.50477    1697.0794   -4.1512606    3.3695097    207.28652            0 
  788500       788498    99.966838   0.99550944     31953211 0.00083371985    207.53586    1697.1487   -3.8257064     3.405134    207.95643            0 
  789000       788998    100.05649   0.92601458     31951767 0.00083375753    206.91589    1697.8647   -2.7568054    3.4156981      206.257            0 
  789500       789498    99.999984   0.89193702     31970724 0.00083326315    207.87912    1697.9858   -3.2235552    3.4598279    207.64284            0 
  790000       789998    100.00058   0.82348333     31980816 0.00083300019    207.12974    1697.2453   -3.9506291    3.4898135    207.59055            0 
  790500       790498    99.891439   0.84302945     31959147 0.00083356498    207.87192    1696.3612   -4.3749951    3.4932055    208.75371            0 
  791000       790998    100.00614   0.88870909     31902762 0.00083503823    207.76506    1697.9635   -3.2864797    3.2370199    207.81452            0 
  791500       791498     100.0075   0.98900503     31830332 0.00083693835    207.26336     1697.482   -3.6169583    3.1204116     207.7599            0 
  792000       791998    100.06499    1.0568648     31770610 0.00083851163    207.55862     1698.634   -2.7190043     3.485851    206.79177            0 
  792500       792498    99.977877    1.2378721     31764148 0.0008386822    209.01287    1698.7902   -2.1892938    3.0556555    208.14651            0 
  793000       792998    100.01448    1.2781784     31804616 0.00083761507    207.73777    1698.0604   -2.8036911    3.0687025    207.47276            0 
  793500       793498     99.99512    1.2423277     31846282 0.0008365192    205.27889    1695.3131   -4.8526227    3.2424688    206.88904            0 
  794000       793998    99.954994    1.0592216     31927805 0.00083438324    207.41871     1696.855   -3.7651819    3.1999777    207.98391            0 
  794500       794498    99.896594    0.9130073     31949807 0.00083380867    207.77111    1696.3372   -3.7706735    3.1935385    208.34824            0 
  795000       794998    100.06322   0.75241103     31949064 0.00083382806    206.50051    1697.5495   -3.8387159    3.5780788    206.76115            0 
  795500       795498     99.91043    0.7886145     31918713 0.00083462092    207.80287    1696.5751    -3.432316    3.5836968    207.65149            0 
  796000       795998    100.04565   0.79650178     31919999 0.0008345873    206.56876     1697.356   -4.3865904    3.4241389    207.53121            0 
  796500       796498    99.956328   0.94613904     31906935 0.00083492903    208.21602    1697.6722   -3.3279632    3.3182228    208.22576            0 
  797000       796998    100.02885    1.0746575     31874563 0.00083577697     206.6508    1697.1876     -4.15021    3.4303364    207.37068            0 
  797500       797498    100.07252    1.1859208     31902913 0.00083503429    207.38529    1698.5729   -2.7746961     3.003606    207.15638            0 
  798000       797998    100.07654    1.1991559     31946986 0.00083388229    207.56334    1698.8108    -2.393281    3.1174023    206.83922            0 
  798500       798498    99.912916    1.2460728     32017916 0.00083203499    210.00892    1698.8182   -2.4811492    3.0872516    209.40282            0 
  799000       798998    100.01957     1.159255     32050496 0.0008311892    207.48874    1697.8873   -3.8399913    3.3013705    208.02736            0 
  799500       799498    100.06588    1.0254721     32068139 0.0008307319    205.59104    1696.6797   -3.6952135    3.5501618     205.7361            0 
  800000       799998    100.09437   0.87424382     32063339 0.00083085626    206.33841    1697.8516   -3.3698764    3.5491461    206.15914            0 
  800500       800498    100.00384   0.79788688     32021556 0.00083194039    206.39545    1696.5596   -5.3987331     3.382667    208.41152            0 
  801000       800998    99.828946   0.75009257     32003390 0.00083241264    208.95159    1696.5096   -4.4862408    3.4522975    209.98553            0 
  801500       801498    99.952753   0.72496209     31989305 0.00083277914    208.02882    1697.4317   -3.4332022     3.595654    207.86637            0 
  802000       801998    99.909613   0.84078043     31966274 0.00083337915    208.66523    1697.4253   -2.5829411    3.6587437    207.58943            0 
  802500       802498    100.06416   0.92866817     31954067 0.00083369752    207.26672    1698.3297   -2.8786929    3.4966536    206.64876            0 
  803000       802998    100.04988    1.0757063     31950416 0.00083379276    206.02107    1696.8713   -4.8873454    3.4162993    207.49212            0 
  803500       803498    99.950584    1.2179474     31955705 0.00083365478    208.37063    1697.7412   -3.6878747    3.3271292    208.73138            0 
  804000       803998    99.991026    1.2520219     31938353 0.0008341077    208.05629    1698.0295   -3.8101426    3.2354925    208.63094            0 
  804500       804498    99.996722    1.1657068     31919774 0.00083459318    208.52271    1698.5808     -2.70406    3.3118258    207.91494            0 
  805000       804998    100.09626    1.0426505     31907628 0.00083491088    207.55072     1699.092   -2.9998105    3.4054346    207.14509            0 
  805500       805498    99.955971   0.93150303     31932925 0.00083424948    208.63668    1698.0875    -3.058425    3.3874084    208.30769            0 
  806000       805998    99.960546   0.79502526     31969118  0.000833305    206.81846    1696.3375   -4.9408542    3.5700828    208.18923            0 
  806500       806498    99.925548   0.78780082     31960485 0.00083353008    208.14568    1697.1432   -3.6976845    3.4867493    208.35662            0 
  807000       806998     100.0987   0.81041771     31941075 0.0008340366     206.5446    1698.1222   -3.8164581    3.5531569     206.8079            0 
  807500       807498    99.965184   0.88998319     31971444 0.00083324437    207.91944    1697.5076   -3.2290994    3.4293513    207.71919            0 
  808000       807998    99.999469   0.98988972     31949497 0.00083381676    207.96858    1698.0676   -3.9298251    3.6442504    208.25415            0 
  808500       808498    100.01096    1.1049324     31875843 0.00083574341    207.79578    1698.0661   -3.6735717    3.6072406    207.86211            0 
  809000       808998    100.05892    1.1970129     31801674 0.00083769257    205.32083    1696.3057    -5.769335    3.2018265    207.88834            0 
  809500       809498    99.997958    1.2540517     31810123 0.00083747007    207.19777    1697.2743   -4.0379927    3.2341381    208.00163            0 
  810000       809998    100.04083    1.2339154     31832266 0.00083688752    207.13927    1697.8546   -3.7852032    3.2190041    207.70547            0 
  810500       810498    100.03142    1.2287706     31859987 0.00083615935    207.36276     1697.938   -3.6256274    3.1545608    207.83383            0 
  811000       810998    100.00684    1.1285512     31859871 0.0008361624    207.84707    1698.0559   -3.6814151    3.4509099    208.07758            0 
  811500       811498     100.0819     1.008964     31838099 0.00083673418    207.11316    1698.4405   -3.3038672    3.2660247      207.151            0 
  812000       811998     99.94796   0.98474517     31829480 0.00083696076    208.24546    1697.5769   -3.7554689    3.3322841    208.66865            0 
  812500       812498    99.881776   0.93110932     31807425 0.0008375411    210.28585    1698.6311   -2.7020661    3.6207013    209.36722            0 
  813000       812998    100.02817   0.88131408     31765323 0.00083865119    208.41589    1698.9425   -2.9689787    3.4010306    207.98384            0 
  813500       813498    100.02023   0.88316751     31727864 0.00083964133     207.9133    1698.3218   -3.2937468    3.5460635    207.66098            0 
  814000       813998    100.04791   0.93521136     31720461 0.00083983729    207.16207     1697.983   -3.6342033    3.5545305    207.24174            0 
  814500       814498    99.950285   0.94538151     31742170 0.0008392629    208.85446    1698.2206   -3.4895945    3.5892901    208.75477            0 
  815000       814998    99.943534   0.99205489     31775175 0.00083839115    208.16408    1697.4296   -4.1079158    3.5966219    208.67537            0 
  815500       815498    100.01904   0.98095497     31823974 0.00083710557    207.93149    1698.3222   -3.2744733    3.2664735    207.93949            0 
  816000       815998    100.03129   0.94503002     31853451 0.00083633092    207.54746    1698.1207   -3.2255568    3.6822989    207.09072            0 
  816500       816498    99.981044   0.94050637     31882201 0.00083557674    207.55137    1697.3759   -4.3859509    3.6675497    208.26977            0 
  817000       816998    99.988769    0.9212372     31870346 0.00083588756    208.24646     1698.186   -3.6778129    3.2646267    208.65964            0 
  817500       817498    100.02088   0.90842367     31845242 0.0008365465     208.0026    1698.4206   -3.2187096    3.3589962    207.86231            0 
  818000       817998    99.968552   0.97513115     31840659 0.0008366669    209.01083    1698.6492   -2.8109009    3.4130827    208.40865            0 
  818500       818498     100.0287    1.0581572     31845382 0.00083654282    207.36049     1697.895   -3.5233479    3.4436947    207.44014            0 
  819000       818998    99.913507    1.1415322     31877874 0.00083569016    208.69738    1697.5155   -3.5314553    3.5421522    208.68668            0 
  819500       819498    100.08178    1.1393687     31887917 0.00083542698    206.26218    1697.5878   -4.6096183    3.3892461    207.48255            0 
  820000       819998    99.995978     1.090401     31912890 0.00083477322    208.03198     1698.079   -3.8920697    3.3779139    208.54613            0 
  820500       820498    100.04425   0.95579771     31939970 0.00083406548    207.62218    1698.3885   -3.3685915    3.3096123    207.68116            0 
  821000       820998    100.01193   0.84580814     31961238 0.00083351045    207.90703    1698.1918   -3.8050514    3.4130718    208.29901            0 
  821500       821498    100.00775   0.83541866     31954314 0.00083369106    208.21227    1698.4348   -3.0203974    3.3170226    207.91565            0 
  822000       821998    99.871754   0.94884031     31910298 0.00083484102    210.12339    1698.3193   -2.2854707    3.4067978    209.00206            0 
  822500       822498    100.01025    1.0533199     31884231 0.00083552356    208.64566    1698.9053   -3.1222406    3.6527708    208.11513            0 
  823000       822998    100.11246     1.111004     31864439 0.00083604251    207.19028     1698.973   -2.6980782    3.2851703    206.60319            0 
  823500       823498    100.02447    1.0948609     31853006 0.0008363426    208.13798    1698.6095   -3.3527973    3.4231742     208.0676            0 
  824000       823998    99.999233    1.0816923     31866352 0.00083599234    206.62779    1696.7233   -4.7686338    3.5819493    207.81447            0 
  824500       824498    100.00448   0.99263336     31905912 0.00083495579    207.25613    1697.4299   -4.4578651    3.5519653    208.16203            0 
  825000       824998    99.956483   0.95761273     31943755 0.00083396664    208.17611    1697.6346   -3.9129636    3.4877835    208.60129            0 
  825500       825498    99.987617   0.84784267     31989513 0.00083277372    208.29563     1698.218   -3.1238991     3.361314    208.05821            0 
  826000       825998    100.03205   0.83823738     32012227 0.00083218284    208.03786    1698.6224   -3.3088596    3.7036857    207.64303            0 
  826500       826498    100.00974   0.89998026     32011791 0.00083219417    209.02124    1699.2733   -2.3708917    3.3415691    208.05056            0 
  827000       826998    100.05376    0.9482101     31998847 0.00083253081     209.0267    1699.9347    -2.226534    3.2971442    207.95609            0 
  827500       827498    100.00284    1.0653896     31988235 0.00083280699     208.3629    1698.5122   -3.4348856    3.5136169    208.28416            0 
  828000       827998    100.01205    1.1388098     31981474 0.00083298305    208.48551     1698.772    -3.989231    3.3673437     209.1074            0 
  828500       828498    100.07639    1.1868868     31974092 0.00083317537    207.71871    1698.9639   -2.9009177    3.2358931    207.38374            0 
  829000       828998    99.991674    1.2203945     31960417 0.00083353187    209.91108     1699.894   -1.3490425    3.1963656    208.06376            0 
  829500       829498    100.05336    1.1716832     31986802 0.0008328443    208.51395     1699.416   -2.4297747    3.3240618    207.61966            0 
  830000       829998    100.05917    1.1242422     32012829 0.00083216719    207.91639    1698.9051   -3.0826042    3.3078555    207.69114            0 
  830500       830498    100.00232    1.0038108     32022976 0.00083190349    208.78986    1698.9314   -2.7886597    3.6169857    207.96154            0 
  831000       830998    100.01655   0.94503408     32046237 0.00083129966    208.75315    1699.1067    -3.017273    3.3109511    208.45947            0 
  831500       831498    99.951249   0.95296576     32060181 0.00083093811    209.22908    1698.6096   -3.5612568    3.5599905    209.23034            0 
  832000       831998    99.910705      0.92773     32082282 0.00083036569    207.47847    1696.2548   -3.8943456    3.5374373    207.83538            0 
  832500       832498     100.0022   0.95832776     32110990 0.00082962333    207.68729     1697.827   -4.7206268    3.4936612    208.91426            0 
  833000       832998    100.01347   0.91780305     32099196 0.00082992813     208.7113     1699.019   -3.4131404    3.6910797    208.43336            0 
  833500       833498      100.004   0.86625051     32032585 0.00083165395    208.30449    1698.4711    -3.135259     3.397838    208.04191            0 
  834000       833998    100.04473   0.83241223     31951452 0.00083376574    207.97964    1698.7532   -3.3800764    3.5699571    207.78976            0 
  834500       834498    99.926295   0.90860788     31902501 0.00083504505    210.03421    1699.0429   -2.3357028    3.7013117     208.6686            0 
  835000       834998    99.978799   0.91704423     31901525 0.0008350706    208.86665    1698.6577   -3.4388609    3.4675874    208.83792            0 
  835500       835498    100.05576   0.99661792     31900471 0.00083509821    206.71957    1697.6575   -4.4873465    3.4308692    207.77605            0 
  836000       835998    99.982025    1.0996264     31914517 0.00083473067    209.49435    1699.3334    -2.668688    3.2823448    208.88069            0 
  836500       836498     100.0555    1.1759098     31925210 0.00083445108     208.1398    1699.0738   -3.3926809    3.3891906    208.14329            0 
  837000       836998     100.0609    1.1884434     31954054 0.00083369785    207.85009    1698.8645    -3.482033    3.3301211      208.002            0 
  837500       837498    99.997486    1.2141688     31985557 0.00083287673    207.51086    1697.5803   -4.6269539     3.277094    208.86072            0 
  838000       837998    99.940394    1.1213094     32044481 0.00083134522    208.07479    1697.2935   -4.4633381    3.4298636    209.10826            0 
  838500       838498    100.01227   0.98637084     32053870 0.0008311017    206.68231    1696.9721   -5.4010093    3.6110292    208.47229            0 
  839000       838998     99.99958   0.85987601     32079883 0.00083042779    208.32969    1698.4304   -3.9027248    3.5638167     208.6686            0 
  839500       839498    100.03327   0.75922182     32086161 0.00083026529    208.99929     1699.602    -2.616279    3.6479906    207.96758            0 
  840000       839998     99.99747   0.70281237     32074210 0.00083057466    208.91272     1698.982   -3.0679177    3.9812897    207.99935            0 
  840500       840498    99.915675    0.7477604     32043275 0.00083137651    209.67138    1698.5218   -3.7540471    3.9507915    209.47463            0 
  841000       840998    99.971115   0.90888682     32011092 0.00083221234    209.63891    1699.3154   -2.9661786    3.5669752    209.03812            0 
  841500       841498    100.05619   0.94491446     31990671 0.00083274358    207.87688    1698.8212   -3.7630543    3.7284712    207.91146            0 
  842000       841998    99.956868    1.1258599     31978736 0.00083305436    208.88762    1698.3519   -3.7163501    3.6696995    208.93428            0 
  842500       842498    100.03718    1.1929357     31978372 0.00083306386    207.27599     1697.937   -4.2911759    3.2319321    208.33524            0 
  843000       842998      100.115    1.1880067     32010311 0.00083223264    205.76474    1697.5852   -3.9315558    3.2149142    206.48138            0 
  843500       843498    100.03095    1.1401907     32046641 0.00083128919    207.49547    1698.0636   -4.3219852    3.3878081    208.42964            0 
  844000       843998    99.944442    1.1128967     32090542 0.00083015195    208.92458    1698.2037   -3.9091015    3.3631369    209.47054            0 
  844500       844498    100.01906    1.0446078     32161179 0.00082832866    208.42497     1698.816   -3.7354299    3.2809515    208.87945            0 
  845000       844998    100.04476    1.0777094     32216452 0.00082690751    207.02346    1697.7974   -4.7194551    3.3559681    208.38695            0 
  845500       845498    100.05215    1.0284436     32263573 0.0008256998     207.9753    1698.8593   -3.2780793     3.657163    207.59621            0 
  846000       845998    100.01368    1.0311496     32227895 0.0008266139    208.93523     1699.246   -3.0978302    3.3505997    208.68246            0 
  846500       846498    99.971234    1.0487121     32149782 0.00082862228    209.40302    1699.0813     -3.00025    3.5141892    208.88908            0 
  847000       846998    99.953397   0.97791479     32127200 0.00082920473    209.94758    1699.3601   -2.6031974    3.5133817     209.0374            0 
  847500       847498    99.958754    1.0384044     32085296 0.00083028768    209.58215    1699.0745    -2.301133    3.3823543    208.50093            0 
  848000       847998    99.974668    1.0008542     32097630 0.00082996863    208.77161    1698.5011   -3.2554913    3.4644829    208.56262            0 
  848500       848498    100.02952    1.0592053     32114468 0.00082953345    208.97532    1699.5222   -2.8362752    3.6115855    208.20001            0 
  849000       848998    100.03796    1.0038249     32135771 0.00082898355    209.58445     1700.257   -2.3606997    3.4031672    208.54198            0 
  849500       849498    99.990264   0.96217854     32154553 0.00082849934      210.093    1700.0549   -2.2826267    3.4632243     208.9124            0 
  850000       849998      99.9181   0.99697841     32137267 0.00082894498    211.20714    1700.0937   -2.1534084    3.6800719    209.68048            0 
  850500       850498    100.00892    1.0040968     32132917 0.0008290572    208.86994    1699.1098   -2.9568513    3.6931463    208.13364            0 
  851000       850998     100.0025    1.0644299     32154192 0.00082850865    209.06605    1699.2102   -2.8229834    3.3740867    208.51495            0 
  851500       851498    99.987797    1.0766058     32162862 0.00082828531    209.86117    1699.7863   -2.0932177     3.469708    208.48468            0 
  852000       851998    99.951895    1.0872725     32156572 0.00082844732    211.11732    1700.5075   -1.9642737     3.674329    209.40726            0 
  852500       852498    100.03525   0.94109498     32126912 0.00082921215    208.86536    1699.4976   -3.3111841    3.6972644    208.47928            0 
  853000       852998    100.08424   0.86194689     32116713 0.00082947549    207.21268    1698.5749   -3.5515534    3.5225431    207.24169            0 
  853500       853498    99.925205   0.88523644     32106228 0.00082974636    210.79289    1699.7853   -2.9301348    3.7777684    209.94526            0 
  854000       853998    99.991484   0.84586684     32079227 0.00083044477    210.06581    1700.0459    -2.658577    3.8331269    208.89126            0 
  854500       854498    100.05035   0.82922685     32038861 0.00083149104    209.07672     1699.934   -2.6846768    3.7547512    208.00664            0 
  855000       854998    99.902077   0.85998012     32000212 0.00083249529    211.12626     1699.774   -2.2000287    3.8686644    209.45762            0 
  855500       855498    99.977737   0.88211048     31970425 0.00083327095    209.58663    1699.3618   -3.6416018    3.9445156    209.28372            0 
  856000       855998     100.0217   0.94302425     31946004 0.00083390792    208.90313    1699.3334   -3.3692927    3.7327503    208.53967            0 
  856500       856498    99.962448    0.9965044     31911360 0.00083481323    207.89136    1697.4387   -4.5310303    3.6576471    208.76475            0 
  857000       856998    99.930861    1.0861847     31879451 0.00083564883    209.81537    1698.8921   -3.3155079    3.3518577    209.77902            0 
  857500       857498    99.989288    1.0752549     31864695 0.00083603581    210.46089    1700.4082   -1.6319892    3.4205947    208.67229            0 
  858000       857998    100.04324    1.0944669     31880114 0.00083563146    209.83326    1700.5846   -1.7796002    3.4681751    208.14469            0 
  858500       858498     99.94874    1.1055907     31909636 0.00083485833    210.70239    1700.0455   -2.5825904    3.6701385    209.61484            0 
  859000       858998     100.0895    1.0102912     31939202 0.00083408552    208.03661    1699.4772   -3.5257799    3.5916089    207.97078            0 
  859500       859498    100.04276    1.0196181     31990905 0.00083273748    207.55211    1698.2963   -4.7229428    3.5127269    208.76233            0 
  860000       859998    99.988553   0.93969119     32063351 0.00083085595    207.89145    1697.8278    -4.447781    3.4284992    208.91073            0 
  860500       860498    100.06771   0.95139301     32060467 0.0008309307    207.85815    1698.9741   -3.5667158    3.4759134    207.94896            0 
  861000       860998    99.957168    1.0337786     32016699 0.00083206661    209.66134      1699.13   -3.1788489    3.6529332    209.18726            0 
  861500       861498    100.04347    1.1065804     31971283 0.00083324858    207.77038    1698.5251   -4.4615886    3.6508133    208.58115            0 
  862000       861998    100.06468    1.0582525     31946382 0.00083389805    206.60811    1697.6789   -4.9654319    3.6574273    207.91611            0 
  862500       862498    99.999877     1.086367     31933151 0.00083424356    208.07537    1698.1805   -4.0473258    3.4891104    208.63358            0 
  863000       862998    99.976213    1.1006993     31931692 0.00083428168    210.14305    1699.8955   -2.4201905    3.2908353     209.2724            0 
  863500       863498    100.02936    1.0822675     31927502 0.00083439116    209.79206    1700.3366   -2.4032705    3.4903556    208.70498            0 
  864000       863998    100.03791    1.1059978     31915602 0.00083470228    209.76356    1700.4354   -2.2315401    3.4652624    208.52984            0 
  864500       864498    100.05391    1.0864982     31912787 0.00083477592     209.0397      1699.95   -2.8843822    3.4882241    208.43586            0 
  865000       864998    99.927081    1.0130012     31936199 0.00083416395    210.00395    1699.0243   -3.2228208    3.9722647     209.2545            0 
  865500       865498    99.981723   0.94547564     31941345 0.00083402957     209.9405    1699.7751   -2.9742454    3.8572969    209.05745            0 
  866000       865998    100.00866    0.8638672     31931834 0.00083427797    209.48668    1699.7227   -3.3315198    3.7559088    209.06229            0 
  866500       866498    99.940741   0.88375155     31918582 0.00083462436    210.61481    1699.8387   -2.1432272    3.6565864    209.10146            0 
  867000       866998    99.989227   0.92429899     31906692 0.00083493537    209.93783    1699.8843   -3.3892598      3.63625    209.69084            0 
  867500       867498    100.10864   0.96885194     31909762 0.00083485505    207.25366    1698.9794   -3.9026145    3.5274738     207.6288            0 
  868000       867998    100.02593    1.0500337     31953900 0.00083370185    208.68353    1699.1768   -3.8296162    3.5809903    208.93216            0 
  868500       868498    99.957321    1.1003322     32018931 0.0008320086    210.30331    1699.7743   -2.9081649    3.6033844    209.60809            0 
  869000       868998    100.03674    1.1059352     32073415 0.00083059524    209.28259     1699.937   -2.9266868     3.614068     208.5952            0 
  869500       869498    99.925815    1.1579988     32096104 0.00083000808    210.57899    1699.5805   -2.5474539    3.6097739    209.51667            0 
  870000       869998    99.998719     1.097091     32109149 0.00082967089    210.33454    1700.4224   -2.4377363    3.6443957    209.12788            0 
  870500       870498    99.931644    1.0311668     32117821 0.00082944686    210.96223    1700.0506   -2.5610611    3.7582691    209.76503            0 
  871000       870998     100.0702   0.91537353     32103887 0.00082980687     209.7731    1700.9261   -2.2954277    3.7012232    208.36731            0 
  871500       871498    99.996772   0.85180157     32081076 0.0008303969    210.20457    1700.2634   -2.3075149    3.6762009    208.83588            0 
  872000       871998    99.999721   0.77187283     32054549 0.00083108409    209.69123     1699.794   -3.7059373    3.7846204    209.61255            0 
  872500       872498    99.990933   0.76357003     32048547 0.00083123975    210.47287    1700.4447   -2.1626629    3.9596778    208.67585            0 
  873000       872998    100.07813   0.78951349     32042396 0.00083139932    208.34717    1699.6183   -3.3645096     3.975494    207.73618            0 
  873500       873498    99.978839   0.90223469     32075963 0.00083052926    209.68069    1699.4723   -3.4123245    3.7491036    209.34391            0 
  874000       873998    99.936504   0.97335385     32099818 0.00082991205    211.69835    1700.8591   -2.4254494    3.6873801    210.43642            0 
  874500       874498    99.962443    1.1014131     32115830 0.00082949827    210.29316    1699.8405   -2.6216893    3.5745519     209.3403            0 
  875000       874998     99.98387    1.1928484     32135402 0.00082899309    208.77256    1698.6392   -3.2384856    3.4151454     208.5959            0 
  875500       875498    100.02632    1.2681945     32152220 0.00082855945    209.14214    1699.6413   -2.8273906    3.4026267     208.5669            0 
  876000       875998    100.05356    1.2592559     32133371 0.00082904547    207.28283    1698.1878   -5.3845899    3.7303258     208.9371            0 
  876500       876498    99.953136    1.1861036     32110359 0.00082963961    208.97082    1698.3794   -4.1095402    3.3577777    209.72258            0 
  877000       876998    99.995933   0.98218437     32095473 0.0008300244    208.34363      1698.39   -4.5841523    3.7107231    209.21706            0 
  877500       877498    100.01397   0.80012924     32062018 0.0008308905    208.06337    1698.3785   -5.3367709    4.0486551    209.35148            0 
  878000       877998    100.00321   0.70837244     32047690 0.00083126196    207.54163    1697.6964   -5.1824725    3.7877587    208.93634            0 
  878500       878498    99.994805   0.73505957     32071251 0.0008306513    208.86326    1698.8928   -4.0239486     3.667164    209.22004            0 
  879000       878998    99.973125   0.81176276     32136584 0.00082896258    209.28615    1698.9926   -3.8811826    3.8366216    209.33071            0 
  879500       879498    99.943543   0.95229198     32200782 0.00082730989     210.4224    1699.6881   -2.6884022    3.5767662    209.53404            0 
  880000       879998    100.04183    1.0066381     32233244 0.00082647672    210.81816    1701.5484    -1.506687    3.7179128    208.60693            0 
  880500       880498    100.01681    1.1487256     32221464 0.00082677887      209.247    1699.6044    -3.167751    3.7657758    208.64898            0 
  881000       880998    99.968198    1.2152734     32269788 0.00082554077    209.89692      1699.53      -3.3374    3.3375625    209.89676            0 
  881500       881498    99.924472    1.1538472     32311483 0.0008244755    211.07137    1700.0529   -1.7987433    3.5799758    209.29014            0 
  882000       881998    99.968669    1.0728962     32358343 0.00082328153    210.73152    1700.3716   -2.5881095    3.7146181    209.60501            0 
  882500       882498      100.099    0.9770255     32355755 0.00082334736    208.83221    1700.4143   -2.2323856    3.6681662    207.39643            0 
  883000       882998    100.04934   0.96907931     32366720 0.00082306843     209.7218     1700.564   -2.9399248    3.3778997    209.28383            0 
  883500       883498    99.983348   0.97316933     32360063 0.00082323778    210.44834    1700.3071   -2.8531937    3.6154967    209.68604            0 
  884000       883998    99.929231    1.0446018     32363907 0.00082313997    210.85134    1699.9038   -3.7057253    3.6303855    210.92668            0 
  884500       884498    100.08045   0.98016975     32366833 0.00082306556    209.57271    1700.8784   -2.6550347    3.6063474     208.6214            0 
  885000       884998     99.98026    1.0345028     32365887 0.00082308962    211.60844    1701.4212   -1.6948948    3.6499798    209.65335            0 
  885500       885498    100.02897   0.96334092     32347880 0.00082354782    209.99892    1700.5376   -2.8092222    3.5948346     209.2133            0 
  886000       885998    100.04279   0.99767246     32321974 0.00082420789     209.8098    1700.5544   -2.3040484    3.6161849    208.49767            0 
  886500       886498    99.961943    1.0421794     32290157 0.00082502003    210.77474    1700.3146   -2.6203154    3.5039417    209.89111            0 
  887000       886998    100.01046    1.0527718     32254177 0.00082594033    208.94177    1699.2045   -3.1756047    3.5782521    208.53913            0 
  887500       887498    99.948647    1.0830563     32302957 0.0008246931    211.33676    1700.6785   -3.0412962    3.6898212    210.68824            0 
  888000       887998    100.02506    1.0536891     32370486 0.0008229727    209.89879    1700.3791   -3.1387953    3.6532801     209.3843            0 
  888500       888498     100.0853    1.0726418     32370979 0.00082296015    208.92895     1700.307   -3.4311094     3.342254    209.01781            0 
  889000       888998    100.09435    1.0722862     32371063 0.00082295803    208.37524     1699.888   -4.0525219    3.5913032    208.83646            0 
  889500       889498     100.0381    1.0442316     32355836 0.00082334531    208.99222    1699.6669   -3.8430039    3.7931903    209.04203            0 
  890000       889998    100.05013    1.0121685     32342710 0.00082367947     209.4221     1700.276   -2.9269536    3.5416263    208.80743            0 
  890500       890498    99.991929    1.0313573     32300572 0.00082475401    210.40448    1700.3912   -3.1926197    3.6005464    209.99655            0 
  891000       890998    100.03066   0.99388604     32262928 0.0008257163     210.4714    1701.0352   -2.4055304    3.5540037    209.32293            0 
  891500       891498    100.00899   0.97615992     32221201 0.00082678564    210.50901    1700.7499   -2.7024289    3.6346057    209.57683            0 
  892000       891998    99.919675    1.0191799     32186916 0.00082766632    211.47193     1700.382   -2.5598002     3.786053    210.24568            0 
  892500       892498    99.942066    1.0345835     32195674 0.00082744117     210.1093     1699.353   -3.3293601    3.7541307    209.68453            0 
  893000       892998    100.13832   0.94059435     32232476 0.00082649643    208.40948    1700.5776   -2.7633043    3.5863441    207.58644            0 
  893500       893498    99.938991    0.9970796     32256152 0.00082588977    210.69403    1699.8919   -3.1496242    3.7345468     210.1091            0 
  894000       893998    99.959446   0.96764757     32282799 0.00082520807    211.04383    1700.5465   -2.5148198    3.6846736    209.87397            0 
  894500       894498    99.979819    0.9895669     32313290 0.00082442938    210.69979     1700.506   -2.5821223    3.6296559    209.65226            0 
  895000       894998    100.01611   0.95758146     32372387 0.00082292435    210.28753    1700.6345    -3.197472      3.86138    209.62362            0 
  895500       895498    99.901689    1.0190347     32377927 0.00082278356    211.70617    1700.3482   -2.5288898    3.5500551      210.685            0 
  896000       895998    99.986788   0.93500025     32348557 0.00082353058    210.06244    1699.9725   -4.1461507    3.8145138    210.39407            0 
  896500       896498    99.953163   0.90274913     32324292 0.00082414879    210.83435    1700.2434     -3.83478    3.8371028    210.83202            0 
  897000       896998    99.922066   0.91500721     32291875 0.00082497613    210.23474    1699.1804   -3.7486624    3.7237626    210.25964            0 
  897500       897498     100.0474   0.92674003     32281341 0.00082524532    209.16066    1699.9739   -4.2684356    3.8226396    209.60645            0 
  898000       897998    99.916444    0.9599209     32313678 0.00082441949    210.30102    1699.1629   -4.3988813    3.8153234    210.88457            0 
  898500       898498    100.01546   0.98342398     32337304 0.00082381715    209.86484    1700.2022   -3.7645187    3.7378572     209.8915            0 
  899000       898998     99.94883    1.0444238     32381778 0.0008226857     210.7422    1700.0867   -3.4306025     3.814398    210.35841            0 
  899500       899498    100.04638    1.0510767     32388501 0.00082251493    209.90041    1700.6985   -3.5222008    3.5485154     209.8741            0 
  900000       899998    99.919671    1.0876938     32393833 0.00082237956     210.8147    1699.7246   -3.6477162    3.4473301    211.01508            0 
  900500       900498    100.00509    1.1018996     32402611 0.00082215678    210.79445    1700.9772   -2.8845835    3.6195811    210.05945            0 
  901000       900998      100.112    1.1139481     32407486 0.00082203309    209.58071    1701.3565   -2.8575752    3.3624889     209.0758            0 
  901500       901498    100.02698    1.0970634     32391648 0.00082243503    209.90515    1700.4141   -3.8599526    3.7292405    210.03586            0 
  902000       901998    99.978429    1.0506831     32347169 0.00082356591    209.85527    1699.6408   -4.3326315    3.7997796    210.38813            0 
  902500       902498    99.884411    0.9759192     32298074 0.00082481778    212.04274    1700.4273   -3.0364667    3.6112597    211.46795            0 
  903000       902998    100.04287   0.88825548     32291598 0.00082498321    210.20301    1700.9487   -2.8737668    3.7754749     209.3013            0 
  903500       903498    99.993932   0.82594338     32289333 0.00082504106    210.38065    1700.3972   -3.7090579     4.072477    210.01723            0 
  904000       903998      99.9419   0.81744491     32303704 0.00082467403    210.90197    1700.1432   -2.9486666    3.7404234    210.11021            0 
  904500       904498    99.962176   0.78994944     32318141 0.00082430564    211.08032    1700.6236   -3.1288824    3.9056783    210.30352            0 
  905000       904998    100.02014   0.82257264     32319893 0.00082426095    208.71474    1699.1218   -5.5277538     4.108086    210.13441            0 
  905500       905498    99.810745   0.93391172     32351560 0.00082345414    211.55857    1698.8454   -3.8287137    3.9358213    211.45146            0 
  906000       905998    99.947732    1.0053178     32384718 0.00082261103    210.61816    1699.9463   -3.2252573     3.810879    210.03253            0 
  906500       906498      100.013     1.067458     32404760 0.00082210225    209.82668    1700.1273   -2.9739339     3.642987    209.15763            0 
  907000       906998    100.00286    1.1618226     32386987 0.00082255339    210.13219    1700.2818   -3.3379698     3.770053    209.70011            0 
  907500       907498    99.967494    1.1910204     32365753 0.00082309304    210.34372    1699.9663   -3.9839545      3.57066    210.75702            0 
  908000       907998    99.985724    1.1675678     32324840 0.0008241348    210.64659    1700.5408   -3.4512274     3.660446    210.43737            0 
  908500       908498    99.936716     1.139056     32287030 0.00082509991    211.35866    1700.5226   -3.3610234     3.761837    210.95785            0 
  909000       908998    100.05115    1.0063516     32265279 0.00082565615    209.18302    1700.0522   -3.8630787    3.6106466    209.43545            0 
  909500       909498    99.992706   0.89650183     32250652 0.00082603061    210.74106    1700.7393   -2.8887914    3.8477349    209.78212            0 
  910000       909998    99.979773   0.83901776     32238693 0.00082633702    211.29054    1701.0961   -2.9426578    3.8286409    210.40456            0 
  910500       910498     99.96689   0.82695213     32258355 0.00082583337    211.42973    1701.0433   -2.8296455    3.8893526    210.37002            0 
  911000       910998    100.01118   0.81638742     32282838 0.00082520706    209.63216    1699.9057   -4.0901864     3.916893    209.80545            0 
  911500       911498    100.04134   0.92262256     32302307 0.00082470971    209.26313     1699.986   -4.2481706    3.8822113    209.62909            0 
  912000       911998    100.03782   0.95959135     32337227 0.00082381913    209.44986    1700.1203   -3.4206337    3.7545868    209.11591            0 
  912500       912498     100.0593    1.0488496     32348870 0.0008235226    210.08722    1701.0778   -3.3969247    3.7162507     209.7679            0 
  913000       912998    99.978995    1.1249457     32370263 0.00082297836    211.25712    1701.0511   -2.9654449    3.6774963    210.54507            0 
  913500       913498    100.06928    1.1231617     32374849 0.00082286179    209.10433    1700.2436   -4.0409875    3.8315348    209.31379            0 
  914000       913998    99.926429    1.1466963     32338952 0.00082377517    212.65677    1701.6674   -2.5654487    3.5694601    211.65276            0 
  914500       914498    100.04858    1.0614592     32335318 0.00082386776    210.41301    1701.2438   -2.9081844    3.8605897     209.4606            0 
  915000       914998    100.01238   0.97701996     32386760 0.00082255916    210.71602    1701.0075    -3.532009    4.0572046    210.19082            0 
  915500       915498    99.929199   0.93310431     32463815 0.00082060675    211.43251    1700.4844   -3.8488558    4.1329496    211.14842            0 
  916000       915998    99.947481   0.95660207     32497022 0.00081976822    210.90037    1700.2247   -2.6924775    3.9435441    209.64931            0 
  916500       916498     100.0393   0.91637521     32502784 0.0008196229     210.4301    1701.1227   -3.1613582    3.6174725    209.97399            0 
  917000       916998     100.0204   0.93524842     32475430 0.00082031327    211.30999     1701.721   -2.4907685    3.7826167    210.01814            0 
  917500       917498    99.923942    1.0143239     32456659 0.00082078769    213.04292    1702.0165   -1.7341186    3.8121129    210.96493            0 
  918000       917998    100.03465   0.96575597     32437383 0.00082127543    210.53786    1701.1612   -3.5264181    3.7740203    210.29026            0 
  918500       918498    99.918228    1.0125335     32426440 0.00082155258    212.53833    1701.4268   -2.6889037    4.0074856    211.21975            0 
  919000       918998    100.04688   0.98503727     32440818 0.00082118847    210.89107    1701.6965   -3.4059692    4.0698466    210.22719            0 
  919500       919498    100.06488    1.0184647     32499484 0.00081970612    209.43259    1700.5063   -4.2655414    3.7823667    209.91576            0 
  920000       919998    99.999829    1.0629814     32536553 0.00081877223    209.16592    1699.2703   -4.8413738    3.7207962    210.28649            0 
  920500       920498    100.04367    1.0623962     32573370 0.00081784678    209.46139    1700.2191   -4.8317445    3.7931334        210.5            0 
  921000       920998    99.943615     1.097882     32566539 0.00081801832    211.14382    1700.4106   -3.6647108    3.8466711    210.96186            0 
  921500       921498    99.972778    1.0897596     32526766 0.00081901858    213.13193    1702.8332   -2.0143195    3.7785044    211.36774            0 
  922000       921998    100.03264    1.0407634     32474911 0.00082032636    211.24637    1701.8397   -2.8540665     3.685671    210.41477            0 
  922500       922498    100.03169    1.0231735     32437214 0.00082127971    209.51442    1700.0937   -4.8595311    3.9240686    210.44989            0 
  923000       922998    99.943885    1.0284845     32424591 0.00082159944    212.80208    1702.0729   -1.7041232    3.9149581    210.59124            0 
  923500       923498    99.990539   0.98771821     32410595 0.00082195423    212.69286    1702.6588   -2.2410161    3.7631212    211.17076            0 
  924000       923998    100.01482   0.92161265     32415065 0.00082184089    211.11096    1701.4387   -3.5932076     3.913136    210.79103            0 
  924500       924498    99.959028   0.86311457     32424806  0.000821594    210.95011    1700.4465   -3.9446944     4.018116    210.87669            0 
  925000       924998    100.02115    0.8535401     32427804 0.00082151803    211.46034    1701.8825   -3.3441502    3.8435685    210.96093            0 
  925500       925498    99.977187   0.92012653     32427804 0.00082151805    211.70928    1701.4763   -3.1272008    4.0952458    210.74124            0 
  926000       925998    100.04185   0.99382131     32458487 0.00082074147    209.82549     1700.556    -4.624722    3.9682317    210.48198            0 
  926500       926498     99.97477    1.0858796     32535498 0.00081879878    210.71567    1700.4467   -3.8606125    3.5840757    210.99221            0 
  927000       926998    100.04735    1.1161606     32568455 0.0008179702    211.30553    1702.1181   -2.8213961    4.1405086    209.98642            0 
  927500       927498    99.924714    1.1680683     32564639 0.00081806607    213.61636    1702.6015   -2.2828471    3.7094701    212.18974            0 
  928000       927998    100.00592    1.1107383     32532224 0.00081888118     211.6709     1701.866   -3.0600233    3.5841265    211.14679            0 
  928500       928498     100.0532    1.0882526     32518244 0.00081923323    211.48872    1702.3883   -2.6439582    3.6556166    210.47706            0 
  929000       928998     99.98825    1.1101577     32523786 0.00081909362    212.27282    1702.2047   -2.2270257    3.8542417     210.6456            0 
  929500       929498    99.988314     1.065521     32554381 0.00081832384    210.59144    1700.5242   -4.3639283    4.0997358    210.85563            0 
  930000       929998    99.995526   0.94235269     32604290 0.00081707119    212.21618    1702.2565   -2.7480655    3.9974183    210.96683            0 
  930500       930498    100.06667   0.88919701     32622864 0.00081660598    211.70716    1702.8075   -2.4577611    4.0326647    210.13225            0 
  931000       930998    100.00314   0.86979133     32613836 0.00081683203     211.4623     1701.616   -2.9902504    3.8092394    210.64331            0 
  931500       931498    99.924357   0.90259755     32603803 0.00081708339    210.26509    1699.2449   -5.1134899    4.0418477    211.33674            0 
  932000       931998    100.04302   0.99085496     32628668 0.00081646071    211.44033    1702.1883     -3.22882    4.0674854    210.60167            0 
  932500       932498    100.03274    1.0460917     32602734 0.00081711019    209.98955    1700.5844   -4.8737481    4.0358715    210.82743            0 
  933000       932998    100.00796    1.1322151     32588470 0.00081746782    211.23708    1701.4627    -3.506872    3.7667157    210.97723            0 
  933500       933498    100.01293     1.057324     32584787 0.00081756022    212.21959    1702.5192   -2.1371059    3.8399649    210.51673            0 
  934000       933998    99.969572    1.0444507     32587863 0.00081748305    212.70301    1702.3566   -2.3962542    3.8751803    211.22409            0 
  934500       934498    99.993872   0.94622273     32624529 0.00081656432    212.01674    1702.0324   -3.1051099    4.2135135    210.90833            0 
  935000       934998    100.01719   0.97130641     32639515 0.0008161894    211.56962    1701.9328   -3.1055441    3.6899154    210.98525            0 
  935500       935498    100.04781   0.96601959     32619808 0.00081668249     210.5553    1701.3747    -3.688956    4.1984525    210.04581            0 
  936000       935998    99.962486    1.0135133     32588709 0.00081746183    211.58382    1701.1318   -3.7934019    4.2971163     211.0801            0 
  936500       936498    99.952923   0.94814238     32602996 0.00081710361    211.14963    1700.5551   -4.2784444    4.1578598    211.27021            0 
  937000       936998     100.0686   0.92365667     32633808 0.00081633214    211.04959    1702.1787   -2.9192285    3.9408696    210.02794            0 
  937500       937498    100.04005   0.86777934     32650714 0.00081590945    211.02071    1701.7245   -3.0850875    4.0091844    210.09661            0 
  938000       937998     99.98265   0.86924671     32658914 0.00081570458    211.89326    1701.7417   -3.5758737    4.0833423    211.38579            0 
  938500       938498    100.04515   0.86609883     32623973 0.00081657823    210.22572    1701.0055    -4.093037    3.9760435    210.34271            0 
  939000       938998    99.983101   0.99631847     32564145 0.00081807846    211.81396    1701.6691   -3.7317608     3.889038    211.65668            0 
  939500       939498    100.03163    1.1368212     32506922 0.00081951856    210.51078    1701.0891   -3.8422677    3.9213523     210.4317            0 
  940000       939998    100.13714    1.2367876     32467491 0.00082051384    209.59619    1701.7467     -3.44596    3.6620042    209.38015            0 
  940500       940498    100.10046    1.2490472     32464456 0.00082059056     209.6691     1701.273   -4.0032305    3.7445021    209.92783            0 
  941000       940998    99.964998    1.2203911     32507325 0.0008195084    211.35203    1700.9374   -4.1252756    3.9961981     211.4811            0 
  941500       941498    100.02926    1.0264813     32549803 0.00081843894    211.45657    1701.9996   -2.8967203    3.9322254    210.42107            0 
  942000       941998    99.945038   0.92419308     32541917 0.00081863726    212.88796    1702.1759   -2.6979933    3.9908925    211.59506            0 
  942500       942498    100.00331   0.78322175     32507666 0.0008194998    212.15992    1702.3161   -3.1266542     4.179455    211.10712            0 
  943000       942998    99.897537   0.77354178     32486167 0.00082004214    213.09795    1701.6781   -3.3630757    4.0379744    212.42305            0 
  943500       943498    100.01644   0.78780942     32463390 0.0008206175    210.62754    1700.9795    -4.808764    4.3763141    211.05999            0 
  944000       943998    99.993296   0.84916722     32467152 0.00082052241    211.05384    1701.0609   -3.8610898    4.3073602    210.60757            0 
  944500       944498    99.982589   0.89987675     32476764 0.00082027956    211.67087    1701.5184   -3.5404503    4.0102146    211.20111            0 
  945000       944998    100.05113   0.96953005     32490322 0.00081993726    210.71346    1701.5823   -3.4410166    3.7932801    210.36119            0 
  945500       945498    100.01624    1.0863665     32505659 0.00081955041     210.1954    1700.5443   -4.5292629    3.8874759    210.83719            0 
  946000       945998    100.02098    1.1925609     32520830 0.00081916809    210.75966    1701.1792   -4.5376249    3.6855894    211.61169            0 
  946500       946498    99.972636    1.2409176     32523959 0.00081908926    212.24619    1701.9454   -3.2796016    4.0195061    211.50629            0 
  947000       946998     100.0301    1.2452578     32519252 0.00081920783    209.93937    1700.4948    -4.893289     3.870125    210.96253            0 
  947500       947498    99.989269    1.2199192     32549843 0.00081843792    209.98695     1699.934   -5.5713658    3.4970104     212.0613            0 
  948000       947998    100.10629    1.1132815     32632028 0.00081637665    207.73625     1699.427   -5.3889229    3.9425507    209.18263            0 
  948500       948498    100.04502    1.0136401     32755503 0.00081329924    209.92572    1700.7036   -4.5039784    4.0575813    210.37212            0 
  949000       948998    99.911886   0.98946627     32837754 0.00081126211    211.50235    1700.2963   -4.6346745    4.1345567    212.00247            0 
  949500       949498    100.01527   0.94735808     32840257 0.00081120029    210.27227    1700.6067   -4.6837204    4.1862386    210.76975            0 
  950000       949998    100.08987   0.84021069     32825631 0.00081156174    208.79022    1700.2363    -5.729857    4.4208324    210.09924            0 
  950500       950498    99.958233   0.83743429     32834098 0.00081135245    211.88205    1701.3666   -3.5320363    4.0413337    211.37276            0 
  951000       950998    99.980453   0.75242486     32825834 0.00081155672    211.91324    1701.7289   -3.5185738    4.2639119     211.1679            0 
  951500       951498    99.981847   0.72845732     32831342 0.00081142057    212.61347    1702.4499   -3.0086041    4.6150535    211.00702            0 
  952000       951998    99.924632   0.80492864     32836872 0.0008112839    214.36561    1703.3495   -1.8149493    4.1807123    211.99985            0 
  952500       952498    100.03006   0.81373555     32829791 0.0008114589    213.07321     1703.628   -1.8306702    4.2040839     210.6998            0 
  953000       952998    100.04131   0.94382921     32792735 0.00081237586    211.59429    1702.3168   -3.4697787    4.2285779    210.83549            0 
  953500       953498    99.973865    1.0495203     32792904 0.00081237165    212.71152     1702.429   -2.6354302     3.900959    211.44599            0 
  954000       953998    100.09116    1.1639495     32804438 0.00081208604    211.94982    1703.4152   -2.5136446    3.9352475    210.52821            0 
  954500       954498    100.02699    1.2627403     32818546 0.00081173694    211.59892     1702.108   -3.2549951    3.6475676    211.20634            0 
  955000       954998    99.967237    1.2882707     32843909 0.00081111008    212.83183    1702.4506   -2.5598261    3.7827945    211.60886            0 
  955500       955498    100.01431    1.2591262     32873146 0.0008103887    212.94153    1703.2617   -2.1717855     4.158884    210.95443            0 
  956000       955998    100.00658    1.1968731     32906553 0.00080956598    213.79071    1703.9957   -1.4333748    3.6974634    211.52662            0 
  956500       956498    100.01547    1.0803842     32919542 0.00080924654     213.4693    1703.8067   -2.0597708    3.8737712     211.6553            0 
  957000       956998    99.974912   0.98291318     32927640 0.00080904753    212.85645    1702.5896   -2.8233472     3.904341    211.77545            0 
  957500       957498    100.01592    0.8564871     32908105 0.00080952781    212.23145    1702.5756   -3.0386882     4.215639     211.0545            0 
  958000       957998     99.99835   0.80556428     32884208 0.00081011609    211.81356    1701.8959   -3.4009769    4.4887761    210.72576            0 
  958500       958498    100.03278   0.73820486     32841515 0.00081116921    211.77942    1702.3748   -2.9133426    4.4517092    210.24106            0 
  959000       958998    100.03065   0.73708999     32781729 0.0008126486    212.46408    1703.0278    -2.917688    4.2727228    211.10904            0 
  959500       959498    99.938298   0.78483435     32744626 0.0008135694    213.73034    1702.9179   -2.6829397    4.3810327    212.03224            0 
  960000       959998    100.07208   0.84850909     32724903 0.00081405975    211.64094     1702.822    -3.027303    4.1382535    210.52999            0 
  960500       960498    100.03126   0.94709388     32707588 0.0008144907    212.08137    1702.6542   -2.5647705    4.1039827    210.54216            0 
  961000       960998     99.93926    1.1210494     32720207 0.00081417658    212.12245    1701.3243   -3.8822584    4.0239136    211.98079            0 
  961500       961498    100.02566    1.1656512     32729836 0.00081393703    212.61439    1703.1036   -2.5272947    4.2318322    210.90985            0 
  962000       961998    100.03283    1.2979397     32716914 0.00081425851    211.78448    1702.3806   -3.5281894    3.8096137    211.50306            0 
  962500       962498     99.96989    1.2574901     32720110 0.00081417898    213.03139    1702.6897   -2.4023026    3.8931472    211.54055            0 
  963000       962998     100.0296    1.1829471     32718870 0.00081420984    211.51007    1702.0581   -3.7919278    4.0528331    211.24916            0 
  963500       963498    99.926986    1.1165546     32762448 0.00081312683    212.82483    1701.8438   -2.8945183    3.9706417     211.7487            0 
  964000       963998    99.979386   0.99054826     32818281 0.00081174348    210.95836    1700.7581   -4.7726383    4.2416963     211.4893            0 
  964500       964498    99.968896   0.82958544     32868094 0.00081051327    212.72562    1702.3691   -2.8429038    4.1617577    211.40676            0 
  965000       964998    100.00023   0.69929376     32865351 0.00081058091    213.20279    1703.3131   -2.4092696    4.3891091    211.22295            0 
  965500       965498    99.959375   0.74700044     32871050 0.00081044036     212.9765    1702.4781   -3.2843383    4.0152992    212.24554            0 
  966000       965998    99.962194   0.81658303     32897658 0.00080978488    212.27532    1701.8189    -3.112185    4.2266249    211.16088            0 
  966500       966498    100.02205    0.9985445     32879657 0.00081022822    212.18387    1702.6193   -3.1805877    4.2754818    211.08898            0 
  967000       966998    99.999689     1.190222     32829285 0.0008114714    211.39896    1701.5013   -3.2946627    4.0956269      210.598            0 
  967500       967498     100.0552    1.2589235     32789235 0.00081246257    212.17114    1703.1007   -2.7233601     4.029105     210.8654            0 
  968000       967998    99.995104    1.2835651     32733062 0.00081385683     211.9937    1702.0277   -3.6095806    3.9157468    211.68753            0 
  968500       968498    99.941749    1.2090448     32696681 0.00081476238    213.43641    1702.6754    -2.508181    4.1886119    211.75598            0 
  969000       968998    99.989555    1.0389584     32680144 0.00081517469    212.88856    1702.8399   -2.9191364    3.8506569    211.95704            0 
  969500       969498    100.01904   0.87628413     32688394 0.00081496894     211.7776    1702.1683   -3.8799298     3.935696    211.72183            0 
  970000       969998    99.951129   0.82250508     32736911 0.00081376114    212.79429     1702.173    -3.007783    4.2862982    211.51577            0 
  970500       970498    100.04762   0.83273066     32800658 0.00081217961     211.5687    1702.3852   -3.3716542    4.0168898    210.92347            0 
  971000       970998    99.938525   0.84623264     32854719 0.00081084322    213.75103    1702.9419   -2.5083321    4.2525796    212.00678            0 
  971500       971498    99.975039   0.90525447     32892594 0.00080990956    213.43365    1703.1686   -2.4723853    4.4047318    211.50131            0 
  972000       971998    99.984413   0.96026466     32913407 0.0008093974    213.73668    1703.6114   -2.2983079     4.027458    212.00753            0 
  972500       972498    100.03121   0.99855932     32914075 0.00080938096    212.08663    1702.6587   -3.2756573    4.1677344    211.19456            0 
  973000       972998    99.984395    1.1182927     32925067 0.00080911076    212.34892    1702.2233   -1.9642365    3.9450439    210.36812            0 
  973500       973498    99.966203    1.2108929     32918995 0.00080926001    212.91072     1702.514   -3.4703505    3.9738601    212.40721            0 
  974000       973998    100.00175    1.2219007     32924821 0.00080911681    212.74614    1702.8791   -2.9668108    4.3341084    211.37885            0 
  974500       974498    100.02076    1.1655732     32932671 0.00080892393    211.62316    1702.0394   -3.9035623    4.1969237     211.3298            0 
  975000       974998    99.928382    1.1117071     32926263 0.00080908137    213.57901    1702.6188   -2.2816942     4.117631    211.74308            0 
  975500       975498    99.946117   0.91491668     32898269 0.00080976984    214.31295     1703.617   -1.9925466    4.4158644    211.88963            0 
  976000       975998    100.01993   0.72505899     32883835 0.00081012527    212.66316    1703.0671    -1.964267    4.1565461    210.47088            0 
  976500       976498    99.926118   0.71563746     32874378 0.00081035834    214.43775    1703.4438   -2.3211379    4.4313854     212.3275            0 
  977000       976998    99.879287   0.69258021     32905987 0.00080957991    214.39765    1702.7058   -2.6710662    4.6550389    212.41368            0 
  977500       977498    99.964409   0.75480691     32933370 0.00080890676    213.09332    1702.6699    -3.497643    4.8996755    211.69129            0 
  978000       977998    99.980973   0.91105307     32961285 0.0008082217    212.44942    1702.2728   -3.9592935     4.307189    212.10153            0 
  978500       978498      100.088    1.0146712     32967583 0.00080806731    210.76317    1702.1814   -4.0087367    4.0586111     210.7133            0 
  979000       978998    100.01615    1.1343692     32980209 0.00080775794    211.02718    1701.3747   -4.0728178     4.165352    210.93464            0 
  979500       979498    99.988533    1.2731687     32996640 0.00080735571    212.59001    1702.5261   -3.9045539    3.6495215    212.84504            0 
  980000       979998    100.05721    1.3639569     33005173 0.00080714699    210.96743    1701.9269   -4.3376954    3.8292281     211.4759            0 
  980500       980498    100.04764    1.3080665     33015376 0.00080689755    211.37959    1702.1965    -4.318851    4.1124055    211.58603            0 
  981000       980998    100.06631    1.2283857     33024110 0.00080668415    212.17802    1703.2731    -3.045052    3.8213698    211.40171            0 
  981500       981498    100.04834    1.1321304     33036343 0.00080638545    212.43751    1703.2647   -3.2420254     4.197162    211.48237            0 
  982000       981998    100.07751    1.0000054     33018197 0.00080682862    209.89317    1701.1551   -5.6137369    4.0463673    211.46054            0 
  982500       982498    99.903386   0.93222184     33024409 0.00080667684    213.06843    1701.7357    -4.050622    4.4578503    212.66121            0 
  983000       982998    99.988949   0.81670358     33012145 0.00080697651    212.19738    1702.1397     -3.39529    4.5566076    211.03607            0 
  983500       983498    100.02577   0.75845354     32958396 0.00080829256    211.89815    1702.3891   -3.6064086    4.5108595     210.9937            0 
  984000       983998    99.986732   0.70815154     32878514 0.00081025638    211.86108    1701.7703   -4.6068528    4.5837228    211.88421            0 
  984500       984498    99.904877   0.63666936     32836203 0.00081130043    212.10082    1700.7903   -4.1585906    4.6300033    211.62941            0 
  985000       984998    99.954767    0.6755863     32839540 0.00081121799    211.97678    1701.4097   -4.5557429    4.6551556    211.87736            0 
  985500       985498    100.00172    0.8834945     32837906 0.00081125836    211.21697    1701.3495   -4.4639706    4.3779013    211.30304            0 
  986000       985998    100.05063    1.1449057     32842380 0.00081114786    210.93189    1701.7932   -4.6961847     4.103569     211.5245            0 
  986500       986498    100.03529     1.374042     32870985 0.00081044196    211.88996    1702.5227   -3.2523138     3.907696    211.23458            0 
  987000       986998    100.09966    1.4773247     32903489 0.00080964137    211.10278    1702.6948   -3.1608795    3.6963155    210.56734            0 
  987500       987498    99.992664    1.5387636     32914457 0.00080937158     213.5527    1703.5503   -2.6387614    3.9384816    212.25298            0 
  988000       987998    100.05012    1.4108756     32899370 0.00080974273    211.35011    1702.2039   -3.5908401    4.2481102    210.69284            0 
  988500       988498    99.965991    1.2379696     32895847 0.00080982944    213.06034    1702.6605    -3.339369    4.2042261    212.19548            0 
  989000       988998    99.935787   0.96659524     32893110 0.00080989684    212.73604    1701.8862   -3.2845543    4.3731343    211.64746            0 
  989500       989498    99.996842   0.71272715     32925874 0.00080909092    212.89807     1702.958   -3.0292424    4.5835404    211.34378            0 
  990000       989998    99.974533   0.49091321     32934240 0.0008088854    212.89504    1702.6225    -3.555456    4.6152603    211.83524            0 
  990500       990498    99.987146   0.41551205     32952966 0.00080842573    212.10612    1702.0215   -4.1846271    4.7884527     211.5023            0 
  991000       990998    99.984912   0.49161681     32976924 0.00080783842    211.98981    1701.8719   -4.3665593    4.8523213    211.50405            0 
  991500       991498    99.927097   0.75026493     32987417 0.00080758145    212.58484    1701.6054   -4.6855637    4.8775512    212.39285            0 
  992000       991998    100.03986   0.96188118     32969400 0.00080802277    210.47417    1701.1751   -4.7626257    4.3891307    210.84767            0 
  992500       992498     100.0007    1.1919906     32945964 0.00080859756    212.48955     1702.607   -3.6269187    4.0884665      212.028            0 
  993000       992998    100.04535    1.3476759     32903746 0.00080963506    211.04161    1701.8243   -4.5257235    4.0612802    211.50605            0 
  993500       993498     100.0644    1.4403567     32903545   0.00080964    210.38111    1701.4477   -4.7021429     3.980424    211.10283            0 
  994000       993998    100.01502    1.3605304     32977761 0.00080781791    212.09968    1702.4304   -3.4396446    4.0235243     211.5158            0 
  994500       994498     100.0479    1.3185287     33053441 0.00080596831    211.96715    1702.7879    -3.147793    4.2510929    210.86385            0 
  995000       994998    99.988515    1.2516664     33070208 0.00080555966     212.8581    1702.7939    -3.103027    3.9085553    212.05257            0 
  995500       995498    99.985869    1.0956818     33092918 0.00080500687    213.53153    1703.4279   -2.9296978    4.2120783    212.24915            0 
  996000       995998    100.00614   0.93005285     33077236 0.00080538852     213.5369    1703.7353   -2.6931653    4.2763551    211.95371            0 
  996500       996498     100.0106   0.78811193     33074746 0.00080544916     213.3253    1703.5901   -2.3250789     4.224664    211.42572            0 
  997000       996998    100.00137   0.78696986     33066788 0.00080564299    213.18358     1703.311   -3.2402781    4.7314742    211.69238            0 
  997500       997498    99.941453    0.8191752     33094195 0.00080497579    212.84178    1702.0763   -3.6519366    4.7841742    211.70954            0 
  998000       997998     99.94158   0.91105161     33159549 0.00080338926    214.19637    1703.4328   -2.5941632    4.6832267    212.10731            0 
  998500       998498    99.907204   0.99963035     33191504 0.00080261582    215.62272    1704.3469   -1.2966203    4.7713582    212.14798            0 
  999000       998998    100.04734    1.0783319     33181158 0.00080286607     213.2748    1704.0871   -2.6270024    4.3607837    211.54102            0 
  999500       999498    100.12624    1.0904112     33151732 0.0008035787    211.96742    1703.9555   -2.6656939    4.3895523    210.24356            0 
 1000000       999998    100.03275    1.1970297     33105490 0.00080470115     211.2297    1701.8246   -4.4804839    4.0976562    211.61252            0 
 1000002      1000000    100.07373    1.0178647     33105481 0.00080470136     210.6338    1701.8394   -4.5583149    4.5767468    210.61537            0 
Loop time of 2925.79 on 8 procs for 1000000 steps with 5000 atoms

Performance: 29.530 ns/day, 0.813 hours/ns, 341.788 timesteps/s
100.0% CPU use with 8 MPI tasks x no OpenMP threads

MPI task timing breakdown:
Section |  min time  |  avg time  |  max time  |%varavg| %total
---------------------------------------------------------------
Pair    | 84.448     | 90.719     | 95.029     |  35.4 |  3.10
Bond    | 81.143     | 84.694     | 86.835     |  19.9 |  2.89
Kspace  | 519.56     | 525.52     | 535.63     |  22.6 | 17.96
Neigh   | 12.619     | 12.631     | 12.64      |   0.2 |  0.43
Comm    | 20.859     | 346.43     | 402.56     | 662.5 | 11.84
Output  | 0.94912    | 0.95639    | 0.95756    |   0.3 |  0.03
Modify  | 1149.8     | 1300.9     | 2182.5     | 925.6 | 44.46
Other   |            | 563.9      |            |       | 19.27

Nlocal:        625.000 ave         794 max         568 min
Histogram: 1 5 1 0 0 0 0 0 0 1
Nghost:        359.250 ave         384 max         335 min
Histogram: 1 0 1 1 1 2 0 1 0 1
Neighs:        1692.00 ave        2486 max        1458 min
Histogram: 4 1 1 1 0 0 0 0 0 1

Total # of neighbors = 13536
Ave neighs/atom = 2.7072000
Ave special neighs/atom = 4.0000000
Neighbor list builds = 39854
Dangerous builds = 0

write_data   system_after_npt.data
System init for write_data ...
PPPM initialization ...
  using 12-bit tables for long-range coulomb (../kspace.cpp:340)
  G vector (1/distance) = 0.03394008
  grid = 8 8 8
  stencil order = 5
  estimated absolute RMS force accuracy = 0.043594752
  estimated relative force accuracy = 0.0001312843
  using double precision KISS FFT
  3d grid and FFT values/proc = 729 64
Total wall time: 0:48:46
